Ba2 Na O6 Os
1.0
        8.2869997025         0.0000000000         0.0000000000
        0.0000000000         8.2869997025         0.0000000000
        0.0000000000         0.0000000000         8.2869997025
   Ba   Na   Os    O
    8    4    0   24
Direct
     0.250000000         0.250000000         0.250000000
     0.750000000         0.750000000         0.750000000
     0.750000000         0.750000000         0.250000000
     0.250000000         0.250000000         0.750000000
     0.750000000         0.250000000         0.750000000
     0.250000000         0.750000000         0.250000000
     0.250000000         0.750000000         0.750000000
     0.750000000         0.250000000         0.250000000
     0.500000000         0.500000000         0.500000000
     0.500000000         0.000000000         0.000000000
     0.000000000         0.500000000         0.000000000
     0.000000000         0.000000000         0.500000000
     0.225600000         0.000000000         0.000000000
     0.774400000         0.000000000         0.000000000
     0.000000000         0.225600000         0.000000000
     0.000000000         0.774400000         0.000000000
     0.000000000         0.000000000         0.225600000
     0.000000000         0.000000000         0.774400000
     0.225600000         0.500000000         0.500000000
     0.774400000         0.500000000         0.500000000
     0.000000000         0.725600000         0.500000000
     0.000000000         0.274400000         0.500000000
     0.000000000         0.500000000         0.725600000
     0.000000000         0.500000000         0.274400000
     0.725600000         0.000000000         0.500000000
     0.274400000         0.000000000         0.500000000
     0.500000000         0.225600000         0.500000000
     0.500000000         0.774400000         0.500000000
     0.500000000         0.000000000         0.725600000
     0.500000000         0.000000000         0.274400000
     0.725600000         0.500000000         0.000000000
     0.274400000         0.500000000         0.000000000
     0.500000000         0.725600000         0.000000000
     0.500000000         0.274400000         0.000000000
     0.500000000         0.500000000         0.225600000
     0.500000000         0.500000000         0.774400000
