Ca1 F2
1.0
        5.4509501457         0.0000000000         0.0000000000
        0.0000000000         5.4509501457         0.0000000000
        0.0000000000         0.0000000000         5.4509501457
   Ca    F
    4    8
Direct
     0.500000000         0.500000000         0.500000000
     0.500000000         0.000000000         0.000000000
     0.000000000         0.500000000         0.000000000
     0.000000000         0.000000000         0.500000000
     0.250000000         0.750000000         0.750000000
     0.750000000         0.250000000         0.250000000
     0.750000000         0.250000000         0.750000000
     0.250000000         0.750000000         0.250000000
     0.750000000         0.750000000         0.250000000
     0.250000000         0.250000000         0.750000000
     0.250000000         0.250000000         0.250000000
     0.750000000         0.750000000         0.750000000
