
     Program PWSCF v.7.5 starts on  7Aug2026 at 21:49:57 

     This program is part of the open-source Quantum ESPRESSO suite
     for quantum simulation of materials; please cite
         "P. Giannozzi et al., J. Phys.:Condens. Matter 21 395502 (2009);
         "P. Giannozzi et al., J. Phys.:Condens. Matter 29 465901 (2017);
         "P. Giannozzi et al., J. Chem. Phys. 152 154105 (2020);
          URL http://www.quantum-espresso.org", 
     in publications or presentations arising from this work. More details at
     http://www.quantum-espresso.org/quote

     Parallel version (MPI & OpenMP), running on     192 processor cores
     Number of MPI processes:                96
     Threads/MPI process:                     2

     MPI processes distributed on     1 nodes
     1499950 MiB available memory on the printing compute node when the environment starts

     Reading input from scf1.in
Warning: card &CELL ignored
Warning: card                CELL_DYNAMICS = 'BFGS', ignored
Warning: card                  CELL_FACTOR = 1.0, ignored
Warning: card                        PRESS = 0.0 ignored

     Current dimensions of program PWSCF are:
     Max number of different atomic species (ntypx) = 10
     Max number of k-points (npk) =  40000
     Max angular momentum in pseudopotentials (lmaxx) =  4
     file Fe.pbe-spn-kjpaw_psl.0.2.1.UPF: wavefunction(s)  3D renormalized
     file P.pbe-n-kjpaw_psl.1.0.0.UPF: wavefunction(s)  3S 3P renormalized
     file H.pbe-kjpaw_psl.0.1.UPF: wavefunction(s)  1S renormalized
     Message from routine setup:
     using ibrav=0 with symmetry is DISCOURAGED, use correct ibrav instead

     K-points division:     npool     =       2
     R & G space division:  proc/nbgrp/npool/nimage =      48
     Subspace diagonalization in iterative solution of the eigenvalue problem:
     one sub-group per band group will be used
     ELPA distributed-memory algorithm (size of sub-group:  6*  6 procs)


     Parallelization info
     --------------------
     sticks:   dense  smooth     PW     G-vecs:    dense   smooth      PW
     Min         566     226     59                66264    16760    2259
     Max         567     227     60                66269    16767    2264
     Sum       27175   10891   2869              3180745   804717  108573

     Using Slab Decomposition



     bravais-lattice index     =            0
     lattice parameter (alat)  =      22.2118  a.u.
     unit-cell volume          =    8325.2899 (a.u.)^3
     number of atoms/cell      =          109
     number of atomic types    =            3
     number of electrons       =      1333.00
     number of Kohn-Sham states=          800
     kinetic-energy cutoff     =      80.0000  Ry
     charge density cutoff     =     800.0000  Ry
     scf convergence threshold =      1.0E-07
     mixing beta               =       0.2000
     number of iterations used =            8  local-TF  mixing
     Exchange-correlation= SLA  PW   PBX  PBC
                           (   1   4   3   4   0   0   0)

     celldm(1)=  22.211841  celldm(2)=   0.000000  celldm(3)=   0.000000
     celldm(4)=   0.000000  celldm(5)=   0.000000  celldm(6)=   0.000000

     crystal axes: (cart. coord. in units of alat)
               a(1) = (   1.000000   0.000000   0.000000 )  
               a(2) = (  -0.500000   0.866025   0.000000 )  
               a(3) = (   0.000000   0.000000   0.877233 )  

     reciprocal axes: (cart. coord. in units 2 pi/alat)
               b(1) = (  1.000000  0.577350 -0.000000 )  
               b(2) = (  0.000000  1.154701  0.000000 )  
               b(3) = (  0.000000 -0.000000  1.139948 )  


     PseudoPot. # 1 for Fe read from file:
     /home/vol05/scarf795/pseudo/PBE_PAW/Fe.pbe-spn-kjpaw_psl.0.2.1.UPF
     MD5 check sum: c3c4b6e1e53c08f543408af48e50e085
     Pseudo is Projector augmented-wave + core cor, Zval = 16.0
     Generated using "atomic" code by A. Dal Corso  v.5.0.99 svn rev. 10869
     Shape of augmentation charge: PSQ
     Using radial grid of 1191 points,  6 beta functions with: 
                l(1) =   0
                l(2) =   0
                l(3) =   1
                l(4) =   1
                l(5) =   2
                l(6) =   2
     Q(r) pseudized with 0 coefficients 


     PseudoPot. # 2 for P  read from file:
     /home/vol05/scarf795/pseudo/PBE_PAW/P.pbe-n-kjpaw_psl.1.0.0.UPF
     MD5 check sum: 06b8cad1975795032ee26009bb7624c7
     Pseudo is Projector augmented-wave + core cor, Zval =  5.0
     Generated using &quot;atomic&quot; code by A. Dal Corso  v.6.3
     Shape of augmentation charge: PSQ
     Using radial grid of 1147 points,  6 beta functions with: 
                l(1) =   0
                l(2) =   0
                l(3) =   1
                l(4) =   1
                l(5) =   2
                l(6) =   2
     Q(r) pseudized with 0 coefficients 


     PseudoPot. # 3 for H  read from file:
     /home/vol05/scarf795/pseudo/PBE_PAW/H.pbe-kjpaw_psl.0.1.UPF
     MD5 check sum: 646e9abdd13bcc7bdf63c3fce1a31fdf
     Pseudo is Projector augmented-wave, Zval =  1.0
     Generated using "atomic" code by A. Dal Corso  v.5.0.2 svn rev. 9415
     Shape of augmentation charge: PSQ
     Using radial grid of  929 points,  2 beta functions with: 
                l(1) =   0
                l(2) =   0
     Q(r) pseudized with 0 coefficients 


     atomic species   valence    mass     pseudopotential
     Fe               16.00    55.84500     Fe( 1.00)
     P                 5.00    30.97400     P ( 1.00)
     H                 1.00     1.00000     H ( 1.00)

     Starting magnetic structure 
     atomic species   magnetization
     Fe              0.500
     P               0.000
     H               0.000

      6 Sym. Ops. (no inversion) found


                                    s                        frac. trans.

      isym =  1     identity                                     

 cryst.   s( 1) = (     1          0          0      )
                  (     0          1          0      )
                  (     0          0          1      )

 cart.    s( 1) = (  1.0000000  0.0000000  0.0000000 )
                  (  0.0000000  1.0000000  0.0000000 )
                  (  0.0000000  0.0000000  1.0000000 )


      isym =  2     120 deg rotation - cryst. axis [0,0,1]       

 cryst.   s( 2) = (     0          1          0      )
                  (    -1         -1          0      )
                  (     0          0          1      )

 cart.    s( 2) = ( -0.5000000 -0.8660255  0.0000000 )
                  (  0.8660254 -0.5000000  0.0000000 )
                  (  0.0000000  0.0000000  1.0000000 )


      isym =  3     120 deg rotation - cryst. axis [0,0,-1]      

 cryst.   s( 3) = (    -1         -1          0      )
                  (     1          0          0      )
                  (     0          0          1      )

 cart.    s( 3) = ( -0.5000000  0.8660255  0.0000000 )
                  ( -0.8660254 -0.5000000  0.0000000 )
                  (  0.0000000  0.0000000  1.0000000 )


      isym =  4     inv. 180 deg rotation - cart. axis [0,1,0]   

 cryst.   s( 4) = (     1          0          0      )
                  (    -1         -1          0      )
                  (     0          0          1      )

 cart.    s( 4) = (  1.0000000  0.0000000  0.0000000 )
                  (  0.0000000 -1.0000000  0.0000000 )
                  (  0.0000000  0.0000000  1.0000000 )


      isym =  5     inv. 180 deg rotation - cryst. axis [1,-1,0] 

 cryst.   s( 5) = (     0          1          0      )
                  (     1          0          0      )
                  (     0          0          1      )

 cart.    s( 5) = ( -0.5000000  0.8660255  0.0000000 )
                  (  0.8660254  0.5000000  0.0000000 )
                  (  0.0000000  0.0000000  1.0000000 )


      isym =  6     inv. 180 deg rotation - cryst. axis [2,1,0]  

 cryst.   s( 6) = (    -1         -1          0      )
                  (     0          1          0      )
                  (     0          0          1      )

 cart.    s( 6) = ( -0.5000000 -0.8660255  0.0000000 )
                  ( -0.8660254  0.5000000  0.0000000 )
                  (  0.0000000  0.0000000  1.0000000 )


   Cartesian axes

     site n.     atom                  positions (alat units)
         1        Fe     tau(   1) = (  -0.0676961   0.1172524  -0.0000208  )
         2        Fe     tau(   2) = (  -0.0650033   0.1125882   0.2953382  )
         3        Fe     tau(   3) = (  -0.0650029   0.1125875   0.5818625  )
         4        Fe     tau(   4) = (  -0.3145676   0.5448464  -0.0000176  )
         5        Fe     tau(   5) = (  -0.3144937   0.5447183   0.2921289  )
         6        Fe     tau(   6) = (  -0.3144936   0.5447180   0.5850676  )
         7        Fe     tau(   7) = (   0.4358787   0.1117047  -0.0000183  )
         8        Fe     tau(   8) = (   0.4361566   0.1115642   0.2926570  )
         9        Fe     tau(   9) = (   0.4361571   0.1115641   0.5845399  )
        10        Fe     tau(  10) = (   0.1853210   0.5443955  -0.0000183  )
        11        Fe     tau(  11) = (   0.1853036   0.5440844   0.2926570  )
        12        Fe     tau(  12) = (   0.1853034   0.5440839   0.5845399  )
        13        Fe     tau(  13) = (   0.1854325   0.3211735  -0.0000176  )
        14        Fe     tau(  14) = (   0.1855065   0.3213000   0.2921288  )
        15        Fe     tau(  15) = (   0.1855066   0.3213002   0.5850677  )
        16        Fe     tau(  16) = (  -0.0641215   0.7543138  -0.0000183  )
        17        Fe     tau(  17) = (  -0.0638431   0.7544538   0.2926567  )
        18        Fe     tau(  18) = (  -0.0638426   0.7544539   0.5845402  )
        19        Fe     tau(  19) = (   0.6853201   0.3216239  -0.0000183  )
        20        Fe     tau(  20) = (   0.6853032   0.3219340   0.2926572  )
        21        Fe     tau(  21) = (   0.6853030   0.3219344   0.5845397  )
        22        Fe     tau(  22) = (   0.4323052   0.7487694  -0.0000208  )
        23        Fe     tau(  23) = (   0.4349969   0.7534303   0.2953388  )
        24        Fe     tau(  24) = (   0.4349973   0.7534309   0.5818618  )
        25        Fe     tau(  25) = (   0.1353938  -0.0000028  -0.0000208  )
        26        Fe     tau(  26) = (   0.1300112  -0.0000035   0.2953387  )
        27        Fe     tau(  27) = (   0.1300104  -0.0000035   0.5818619  )
        28        Fe     tau(  28) = (  -0.1211952   0.4333324  -0.0000183  )
        29        Fe     tau(  29) = (  -0.1214552   0.4335020   0.2926572  )
        30        Fe     tau(  30) = (  -0.1214555   0.4335024   0.5845396  )
        31        Fe     tau(  31) = (   0.6291389  -0.0000028  -0.0000176  )
        32        Fe     tau(  32) = (   0.6289922  -0.0000037   0.2921288  )
        33        Fe     tau(  33) = (   0.6289919  -0.0000037   0.5850677  )
        34        Fe     tau(  34) = (   0.3788052   0.4326875  -0.0000183  )
        35        Fe     tau(  35) = (   0.3785447   0.4325164   0.2926567  )
        36        Fe     tau(  36) = (   0.3785444   0.4325160   0.5845402  )
        37        Fe     tau(  37) = (  -0.1487444   0.2576321   0.1475929  )
        38        Fe     tau(  38) = (  -0.1491402   0.2583176   0.4385996  )
        39        Fe     tau(  39) = (  -0.1487451   0.2576333   0.7296031  )
        40        Fe     tau(  40) = (  -0.3990623   0.6911955   0.1471431  )
        41        Fe     tau(  41) = (  -0.3974161   0.6883442   0.4385996  )
        42        Fe     tau(  42) = (  -0.3990605   0.6911925   0.7300536  )
        43        Fe     tau(  43) = (   0.3519880   0.2566378   0.1465052  )
        44        Fe     tau(  44) = (   0.3518277   0.2563528   0.4385984  )
        45        Fe     tau(  45) = (   0.3519879   0.2566376   0.7306916  )
        46        Fe     tau(  46) = (   0.1017506   0.6895133   0.1465052  )
        47        Fe     tau(  47) = (   0.1020774   0.6895096   0.4385984  )
        48        Fe     tau(  48) = (   0.1017508   0.6895133   0.7306916  )
        49        Fe     tau(  49) = (   0.1009375   0.1748237   0.1471425  )
        50        Fe     tau(  50) = (   0.1025835   0.1776740   0.4385996  )
        51        Fe     tau(  51) = (   0.1009393   0.1748268   0.7300541  )
        52        Fe     tau(  52) = (  -0.1480120   0.6093810   0.1465056  )
        53        Fe     tau(  53) = (  -0.1481723   0.6096658   0.4385983  )
        54        Fe     tau(  54) = (  -0.1480121   0.6093812   0.7306913  )
        55        Fe     tau(  55) = (   0.6017498   0.1765052   0.1465058  )
        56        Fe     tau(  56) = (   0.6020774   0.1765083   0.4385984  )
        57        Fe     tau(  57) = (   0.6017500   0.1765052   0.7306910  )
        58        Fe     tau(  58) = (   0.3512563   0.6083876   0.1475928  )
        59        Fe     tau(  59) = (   0.3508597   0.6077001   0.4385996  )
        60        Fe     tau(  60) = (   0.3512556   0.6083864   0.7296032  )
        61        Fe     tau(  61) = (   0.2974923  -0.0000035   0.1475928  )
        62        Fe     tau(  62) = (   0.2982857  -0.0000038   0.4385996  )
        63        Fe     tau(  63) = (   0.2974936  -0.0000035   0.7296032  )
        64        Fe     tau(  64) = (   0.0462665   0.4331469   0.1465058  )
        65        Fe     tau(  65) = (   0.0461001   0.4328648   0.4385984  )
        66        Fe     tau(  66) = (   0.0462664   0.4331468   0.7306911  )
        67        Fe     tau(  67) = (   0.7981289  -0.0000030   0.1471426  )
        68        Fe     tau(  68) = (   0.7948374  -0.0000034   0.4385996  )
        69        Fe     tau(  69) = (   0.7981254  -0.0000030   0.7300541  )
        70        Fe     tau(  70) = (   0.5462659   0.4328723   0.1465055  )
        71        Fe     tau(  71) = (   0.5460994   0.4331534   0.4385984  )
        72        Fe     tau(  72) = (   0.5462658   0.4328725   0.7306913  )
        73        P      tau(  73) = (   0.0004425   0.2900069  -0.0000180  )
        74        P      tau(  74) = (  -0.0001606   0.2891510   0.2922939  )
        75        P      tau(  75) = (  -0.0001607   0.2891515   0.5849029  )
        76        P      tau(  76) = (  -0.2490640   0.7206355  -0.0000180  )
        77        P      tau(  77) = (  -0.2495021   0.7215852   0.2922940  )
        78        P      tau(  78) = (  -0.2495016   0.7215851   0.5849029  )
        79        P      tau(  79) = (   0.5000012   0.2886717  -0.0000183  )
        80        P      tau(  80) = (   0.5000013   0.2886715   0.2924871  )
        81        P      tau(  81) = (   0.5000013   0.2886715   0.5847097  )
        82        P      tau(  82) = (   0.2486252   0.7213999  -0.0000180  )
        83        P      tau(  83) = (   0.2496678   0.7213041   0.2922940  )
        84        P      tau(  84) = (   0.2496674   0.7213037   0.5849028  )
        85        P      tau(  85) = (   0.2509363   0.1453840  -0.0000180  )
        86        P      tau(  86) = (   0.2504978   0.1444330   0.2922940  )
        87        P      tau(  87) = (   0.2504983   0.1444332   0.5849028  )
        88        P      tau(  88) = (   0.0000018   0.5773471  -0.0000183  )
        89        P      tau(  89) = (   0.0000019   0.5773468   0.2924871  )
        90        P      tau(  90) = (   0.0000019   0.5773468   0.5847097  )
        91        P      tau(  91) = (   0.7486249   0.1446199  -0.0000180  )
        92        P      tau(  92) = (   0.7496676   0.1447142   0.2922939  )
        93        P      tau(  93) = (   0.7496672   0.1447146   0.5849029  )
        94        P      tau(  94) = (   0.5004428   0.5760133  -0.0000180  )
        95        P      tau(  95) = (   0.4998393   0.5768674   0.2922940  )
        96        P      tau(  96) = (   0.4998391   0.5768669   0.5849029  )
        97        P      tau(  97) = (   0.0000017  -0.0000036   0.1539623  )
        98        P      tau(  98) = (   0.0000015  -0.0000032   0.4386001  )
        99        P      tau(  99) = (   0.0000017  -0.0000036   0.7232422  )
       100        P      tau( 100) = (  -0.2501750   0.4333151   0.1461441  )
       101        P      tau( 101) = (  -0.2505845   0.4340244   0.4385982  )
       102        P      tau( 102) = (  -0.2501756   0.4333160   0.7310529  )
       103        P      tau( 103) = (   0.5003538  -0.0000036   0.1461440  )
       104        P      tau( 104) = (   0.5011735  -0.0000039   0.4385982  )
       105        P      tau( 105) = (   0.5003549  -0.0000036   0.7310530  )
       106        P      tau( 106) = (   0.2498257   0.4327042   0.1461440  )
       107        P      tau( 107) = (   0.2494160   0.4319941   0.4385982  )
       108        P      tau( 108) = (   0.2498251   0.4327033   0.7310530  )
       109        H      tau( 109) = (   0.0000000   0.0000000   0.0000000  )

   Crystallographic axes

     site n.     atom                  positions (cryst. coord.)
         1        Fe     tau(   1) = ( -0.0000004  0.1353914 -0.0000237  )
         2        Fe     tau(   2) = ( -0.0000005  0.1300056  0.3366701  )
         3        Fe     tau(   3) = ( -0.0000005  0.1300048  0.6632927  )
         4        Fe     tau(   4) = ( -0.0000003  0.6291345 -0.0000201  )
         5        Fe     tau(   5) = ( -0.0000005  0.6289865  0.3330116  )
         6        Fe     tau(   6) = ( -0.0000005  0.6289862  0.6669465  )
         7        Fe     tau(   7) = (  0.5003714  0.1289855 -0.0000209  )
         8        Fe     tau(   8) = (  0.5005682  0.1288232  0.3336137  )
         9        Fe     tau(   9) = (  0.5005687  0.1288232  0.6663448  )
        10        Fe     tau(  10) = (  0.4996279  0.6286138 -0.0000209  )
        11        Fe     tau(  11) = (  0.4994309  0.6282545  0.3336136  )
        12        Fe     tau(  12) = (  0.4994304  0.6282540  0.6663449  )
        13        Fe     tau(  13) = (  0.3708621  0.3708592 -0.0000201  )
        14        Fe     tau(  14) = (  0.3710091  0.3710053  0.3330115  )
        15        Fe     tau(  15) = (  0.3710094  0.3710056  0.6669466  )
        16        Fe     tau(  16) = (  0.3713819  0.8710067 -0.0000209  )
        17        Fe     tau(  17) = (  0.3717410  0.8711683  0.3336133  )
        18        Fe     tau(  18) = (  0.3717415  0.8711683  0.6663452  )
        19        Fe     tau(  19) = (  0.8710098  0.3713794 -0.0000209  )
        20        Fe     tau(  20) = (  0.8711719  0.3717373  0.3336139  )
        21        Fe     tau(  21) = (  0.8711719  0.3717379  0.6663446  )
        22        Fe     tau(  22) = (  0.8646075  0.8646045 -0.0000237  )
        23        Fe     tau(  23) = (  0.8699901  0.8699864  0.3366708  )
        24        Fe     tau(  24) = (  0.8699908  0.8699872  0.6632920  )
        25        Fe     tau(  25) = (  0.1353921 -0.0000033 -0.0000237  )
        26        Fe     tau(  26) = (  0.1300091 -0.0000041  0.3366707  )
        27        Fe     tau(  27) = (  0.1300084 -0.0000041  0.6632921  )
        28        Fe     tau(  28) = (  0.1289894  0.5003692 -0.0000209  )
        29        Fe     tau(  29) = (  0.1288273  0.5005650  0.3336139  )
        30        Fe     tau(  30) = (  0.1288273  0.5005655  0.6663446  )
        31        Fe     tau(  31) = (  0.6291373 -0.0000032 -0.0000201  )
        32        Fe     tau(  32) = (  0.6289900 -0.0000043  0.3330115  )
        33        Fe     tau(  33) = (  0.6289897 -0.0000043  0.6669465  )
        34        Fe     tau(  34) = (  0.6286174  0.4996245 -0.0000209  )
        35        Fe     tau(  35) = (  0.6282582  0.4994269  0.3336133  )
        36        Fe     tau(  36) = (  0.6282577  0.4994264  0.6663452  )
        37        Fe     tau(  37) = ( -0.0000004  0.2974880  0.1682482  )
        38        Fe     tau(  38) = ( -0.0000005  0.2982795  0.4999806  )
        39        Fe     tau(  39) = ( -0.0000004  0.2974893  0.8317093  )
        40        Fe     tau(  40) = ( -0.0000003  0.7981239  0.1677354  )
        41        Fe     tau(  41) = ( -0.0000004  0.7948315  0.4999806  )
        42        Fe     tau(  42) = ( -0.0000003  0.7981204  0.8322229  )
        43        Fe     tau(  43) = (  0.5001579  0.2963398  0.1670083  )
        44        Fe     tau(  44) = (  0.4998331  0.2960108  0.4999792  )
        45        Fe     tau(  45) = (  0.5001577  0.2963396  0.8329501  )
        46        Fe     tau(  46) = (  0.4998413  0.7961815  0.1670083  )
        47        Fe     tau(  47) = (  0.5001660  0.7961772  0.4999792  )
        48        Fe     tau(  48) = (  0.4998415  0.7961814  0.8329502  )
        49        Fe     tau(  49) = (  0.2018721  0.2018691  0.1677348  )
        50        Fe     tau(  50) = (  0.2051637  0.2051603  0.4999806  )
        51        Fe     tau(  51) = (  0.2018756  0.2018726  0.8322235  )
        52        Fe     tau(  52) = (  0.2038143  0.7036526  0.1670087  )
        53        Fe     tau(  53) = (  0.2038184  0.7039814  0.4999791  )
        54        Fe     tau(  54) = (  0.2038143  0.7036528  0.8329498  )
        55        Fe     tau(  55) = (  0.7036552  0.2038107  0.1670089  )
        56        Fe     tau(  56) = (  0.7039845  0.2038142  0.4999792  )
        57        Fe     tau(  57) = (  0.7036554  0.2038107  0.8329495  )
        58        Fe     tau(  58) = (  0.7025091  0.7025055  0.1682481  )
        59        Fe     tau(  59) = (  0.7017155  0.7017117  0.4999806  )
        60        Fe     tau(  60) = (  0.7025077  0.7025041  0.8317094  )
        61        Fe     tau(  61) = (  0.2974903 -0.0000040  0.1682481  )
        62        Fe     tau(  62) = (  0.2982836 -0.0000043  0.4999806  )
        63        Fe     tau(  63) = (  0.2974916 -0.0000040  0.8317094  )
        64        Fe     tau(  64) = (  0.2963440  0.5001550  0.1670089  )
        65        Fe     tau(  65) = (  0.2960147  0.4998293  0.4999792  )
        66        Fe     tau(  66) = (  0.2963438  0.5001549  0.8329496  )
        67        Fe     tau(  67) = (  0.7981271 -0.0000035  0.1677349  )
        68        Fe     tau(  68) = (  0.7948354 -0.0000040  0.4999806  )
        69        Fe     tau(  69) = (  0.7981236 -0.0000035  0.8322234  )
        70        Fe     tau(  70) = (  0.7961849  0.4998379  0.1670086  )
        71        Fe     tau(  71) = (  0.7961807  0.5001625  0.4999792  )
        72        Fe     tau(  72) = (  0.7961848  0.4998381  0.8329498  )
        73        P      tau(  73) = (  0.1678780  0.3348711 -0.0000205  )
        74        P      tau(  74) = (  0.1667808  0.3338828  0.3331998  )
        75        P      tau(  75) = (  0.1667810  0.3338834  0.6667587  )
        76        P      tau(  76) = (  0.1669951  0.8321183 -0.0000205  )
        77        P      tau(  77) = (  0.1671053  0.8332149  0.3331998  )
        78        P      tau(  78) = (  0.1671058  0.8332147  0.6667587  )
        79        P      tau(  79) = (  0.6666659  0.3333294 -0.0000209  )
        80        P      tau(  80) = (  0.6666659  0.3333291  0.3334200  )
        81        P      tau(  81) = (  0.6666659  0.3333291  0.6665385  )
        82        P      tau(  82) = (  0.6651256  0.8330010 -0.0000205  )
        83        P      tau(  83) = (  0.6661129  0.8328902  0.3331999  )
        84        P      tau(  84) = (  0.6661123  0.8328898  0.6667586  )
        85        P      tau(  85) = (  0.3348737  0.1678750 -0.0000205  )
        86        P      tau(  86) = (  0.3338862  0.1667769  0.3331999  )
        87        P      tau(  87) = (  0.3338868  0.1667771  0.6667586  )
        88        P      tau(  88) = (  0.3333334  0.6666631 -0.0000209  )
        89        P      tau(  89) = (  0.3333333  0.6666627  0.3334200  )
        90        P      tau(  90) = (  0.3333333  0.6666627  0.6665385  )
        91        P      tau(  91) = (  0.8321212  0.1669927 -0.0000205  )
        92        P      tau(  92) = (  0.8332184  0.1671016  0.3331998  )
        93        P      tau(  93) = (  0.8332182  0.1671020  0.6667587  )
        94        P      tau(  94) = (  0.8330043  0.6651229 -0.0000205  )
        95        P      tau(  95) = (  0.8328938  0.6661091  0.3331998  )
        96        P      tau(  96) = (  0.8328934  0.6661085  0.6667587  )
        97        P      tau(  97) = ( -0.0000004 -0.0000042  0.1755090  )
        98        P      tau(  98) = ( -0.0000004 -0.0000037  0.4999811  )
        99        P      tau(  99) = ( -0.0000004 -0.0000042  0.8244583  )
       100        P      tau( 100) = ( -0.0000004  0.5003492  0.1665966  )
       101        P      tau( 101) = ( -0.0000005  0.5011682  0.4999790  )
       102        P      tau( 102) = ( -0.0000004  0.5003503  0.8333620  )
       103        P      tau( 103) = (  0.5003517 -0.0000042  0.1665965  )
       104        P      tau( 104) = (  0.5011713 -0.0000045  0.4999790  )
       105        P      tau( 105) = (  0.5003528 -0.0000042  0.8333622  )
       106        P      tau( 106) = (  0.4996476  0.4996438  0.1665965  )
       107        P      tau( 107) = (  0.4988279  0.4988238  0.4999790  )
       108        P      tau( 108) = (  0.4996465  0.4996427  0.8333622  )
       109        H      tau( 109) = (  0.0000000  0.0000000  0.0000000  )

     number of k points=    13  Gaussian smearing, width (Ry)=  0.0200
                       cart. coord. in units 2pi/alat
        k(    1) = (   0.0000000   0.0000000   0.0000000), wk =   0.0156250
        k(    2) = (   0.0000000   0.0000000   0.2849869), wk =   0.0312500
        k(    3) = (   0.0000000   0.0000000  -0.5699738), wk =   0.0156250
        k(    4) = (   0.0000000   0.2886752   0.0000000), wk =   0.0937500
        k(    5) = (   0.0000000   0.2886752   0.2849869), wk =   0.1875000
        k(    6) = (   0.0000000   0.2886752  -0.5699738), wk =   0.0937500
        k(    7) = (   0.0000000  -0.5773503   0.0000000), wk =   0.0468750
        k(    8) = (   0.0000000  -0.5773503   0.2849869), wk =   0.0937500
        k(    9) = (   0.0000000  -0.5773503  -0.5699738), wk =   0.0468750
        k(   10) = (   0.2500000   0.4330127   0.0000000), wk =   0.0937500
        k(   11) = (   0.2500000   0.4330127   0.2849869), wk =   0.0937500
        k(   12) = (   0.2500000   0.4330127  -0.5699738), wk =   0.0937500
        k(   13) = (  -0.2500000  -0.4330127   0.2849869), wk =   0.0937500

                       cryst. coord.
        k(    1) = (   0.0000000   0.0000000   0.0000000), wk =   0.0156250
        k(    2) = (   0.0000000   0.0000000   0.2500000), wk =   0.0312500
        k(    3) = (   0.0000000   0.0000000  -0.5000000), wk =   0.0156250
        k(    4) = (   0.0000000   0.2500000   0.0000000), wk =   0.0937500
        k(    5) = (   0.0000000   0.2500000   0.2500000), wk =   0.1875000
        k(    6) = (   0.0000000   0.2500000  -0.5000000), wk =   0.0937500
        k(    7) = (   0.0000000  -0.5000000   0.0000000), wk =   0.0468750
        k(    8) = (   0.0000000  -0.5000000   0.2500000), wk =   0.0937500
        k(    9) = (   0.0000000  -0.5000000  -0.5000000), wk =   0.0468750
        k(   10) = (   0.2500000   0.2500000   0.0000000), wk =   0.0937500
        k(   11) = (   0.2500000   0.2500000   0.2500000), wk =   0.0937500
        k(   12) = (   0.2500000   0.2500000  -0.5000000), wk =   0.0937500
        k(   13) = (  -0.2500000  -0.2500000   0.2500000), wk =   0.0937500

     Dense  grid:  3180745 G-vectors     FFT dimensions: ( 200, 200, 180)

     Smooth grid:   804717 G-vectors     FFT dimensions: ( 128, 128, 120)

     Dynamical RAM for                 wfc:      25.57 MB

     Dynamical RAM for     wfc (w. buffer):     358.03 MB

     Dynamical RAM for           str. fact:       3.03 MB

     Dynamical RAM for           local pot:       0.00 MB

     Dynamical RAM for          nlocal pot:      62.21 MB

     Dynamical RAM for                qrad:       6.81 MB

     Dynamical RAM for          rho,v,vnew:      13.39 MB

     Dynamical RAM for               rhoin:       4.46 MB

     Dynamical RAM for            rho*nmix:      32.36 MB

     Dynamical RAM for           G-vectors:       3.92 MB

     Dynamical RAM for          h,s,v(r/c):       3.24 MB

     Dynamical RAM for          <psi|beta>:      23.75 MB

     Dynamical RAM for                 psi:      51.15 MB

     Dynamical RAM for                hpsi:      51.15 MB

     Dynamical RAM for                spsi:      51.15 MB

     Dynamical RAM for      wfcinit/wfcrot:      65.80 MB

     Dynamical RAM for           addusdens:     131.95 MB

     Dynamical RAM for          addusforce:     203.80 MB

     Dynamical RAM for         addusstress:     102.88 MB

     Estimated static dynamical RAM per process >     463.22 MB

     Estimated max dynamical RAM per process >     699.38 MB

     Estimated total dynamical RAM >      64.05 GB

     Check: negative core charge=   -0.000013
     Generating pointlists ...
     new r_m :   0.0558 (alat units)  1.2405 (a.u.) for type    1
     new r_m :   0.0635 (alat units)  1.4107 (a.u.) for type    2
     new r_m :   0.0558 (alat units)  1.2405 (a.u.) for type    3

     Initial potential from superposition of free atoms

     starting charge    1332.9627, renormalised to    1333.0000
     Starting wfcs are 1081 randomized atomic wfcs
     Checking if some PAW data can be deallocated... 
       PAW data deallocated on   37 nodes for type:  1
       PAW data deallocated on   60 nodes for type:  2
       PAW data deallocated on   95 nodes for type:  3

     total cpu time spent up to now is      115.9 secs

     per-process dynamical memory:   590.6 Mb

     Self-consistent Calculation

     iteration #  1     ecut=    80.00 Ry     beta= 0.20
     Davidson diagonalization with overlap

---- Real-time Memory Report at c_bands before calling an iterative solver
           726 MiB given to the printing process from OS
           576 MiB allocation reported by mallinfo(arena+hblkhd)
       1453171 MiB available memory on the node where the printing process lives
------------------
     ethr =  1.00E-02,  avg # of iterations =  3.0

     negative rho (up, down):  0.000E+00 6.015E-06

     total cpu time spent up to now is      383.7 secs

     total energy              =  -25685.38724701 Ry
     estimated scf accuracy    <      44.61602266 Ry

     total magnetization       =   248.67 Bohr mag/cell
     absolute magnetization    =   252.71 Bohr mag/cell

     iteration #  2     ecut=    80.00 Ry     beta= 0.20
     Davidson diagonalization with overlap

---- Real-time Memory Report at c_bands before calling an iterative solver
           806 MiB given to the printing process from OS
           611 MiB allocation reported by mallinfo(arena+hblkhd)
       1451041 MiB available memory on the node where the printing process lives
------------------
     ethr =  3.35E-03,  avg # of iterations =  2.0

     negative rho (up, down):  0.000E+00 6.456E-03

     total cpu time spent up to now is      587.7 secs

     total energy              =  -25702.73000790 Ry
     estimated scf accuracy    <      28.95836139 Ry

     total magnetization       =   238.69 Bohr mag/cell
     absolute magnetization    =   244.88 Bohr mag/cell

     iteration #  3     ecut=    80.00 Ry     beta= 0.20
     Davidson diagonalization with overlap

---- Real-time Memory Report at c_bands before calling an iterative solver
           820 MiB given to the printing process from OS
           621 MiB allocation reported by mallinfo(arena+hblkhd)
       1450390 MiB available memory on the node where the printing process lives
------------------
     ethr =  2.17E-03,  avg # of iterations =  1.5

     negative rho (up, down):  0.000E+00 6.800E-03

     total cpu time spent up to now is      806.3 secs

     total energy              =  -25707.99343154 Ry
     estimated scf accuracy    <      13.12319991 Ry

     total magnetization       =   160.20 Bohr mag/cell
     absolute magnetization    =   184.18 Bohr mag/cell

     iteration #  4     ecut=    80.00 Ry     beta= 0.20
     Davidson diagonalization with overlap

---- Real-time Memory Report at c_bands before calling an iterative solver
           822 MiB given to the printing process from OS
           623 MiB allocation reported by mallinfo(arena+hblkhd)
       1450308 MiB available memory on the node where the printing process lives
------------------
     ethr =  9.84E-04,  avg # of iterations =  1.5

     negative rho (up, down):  0.000E+00 7.795E-03

     total cpu time spent up to now is     1004.8 secs

     total energy              =  -25710.20257131 Ry
     estimated scf accuracy    <      20.79535605 Ry

     total magnetization       =   160.12 Bohr mag/cell
     absolute magnetization    =   182.32 Bohr mag/cell

     iteration #  5     ecut=    80.00 Ry     beta= 0.20
     Davidson diagonalization with overlap

---- Real-time Memory Report at c_bands before calling an iterative solver
           824 MiB given to the printing process from OS
           625 MiB allocation reported by mallinfo(arena+hblkhd)
       1450386 MiB available memory on the node where the printing process lives
------------------
     ethr =  9.84E-04,  avg # of iterations =  1.0

     negative rho (up, down):  0.000E+00 4.755E-03

     total cpu time spent up to now is     1184.5 secs

     total energy              =  -25709.97760560 Ry
     estimated scf accuracy    <      11.87987081 Ry

     total magnetization       =   132.77 Bohr mag/cell
     absolute magnetization    =   157.52 Bohr mag/cell

     iteration #  6     ecut=    80.00 Ry     beta= 0.20
     Davidson diagonalization with overlap

---- Real-time Memory Report at c_bands before calling an iterative solver
           825 MiB given to the printing process from OS
           627 MiB allocation reported by mallinfo(arena+hblkhd)
       1450278 MiB available memory on the node where the printing process lives
------------------
     ethr =  8.91E-04,  avg # of iterations =  1.5

     negative rho (up, down):  0.000E+00 3.062E-03

     total cpu time spent up to now is     1384.7 secs

     total energy              =  -25711.15648832 Ry
     estimated scf accuracy    <       1.47423236 Ry

     total magnetization       =   115.58 Bohr mag/cell
     absolute magnetization    =   136.77 Bohr mag/cell

     iteration #  7     ecut=    80.00 Ry     beta= 0.20
     Davidson diagonalization with overlap

---- Real-time Memory Report at c_bands before calling an iterative solver
           827 MiB given to the printing process from OS
           629 MiB allocation reported by mallinfo(arena+hblkhd)
       1450152 MiB available memory on the node where the printing process lives
------------------
     ethr =  1.11E-04,  avg # of iterations =  4.2

     negative rho (up, down):  0.000E+00 1.721E-03

     total cpu time spent up to now is     1625.8 secs

     total energy              =  -25711.34067133 Ry
     estimated scf accuracy    <       0.53032427 Ry

     total magnetization       =   111.54 Bohr mag/cell
     absolute magnetization    =   129.45 Bohr mag/cell

     iteration #  8     ecut=    80.00 Ry     beta= 0.20
     Davidson diagonalization with overlap

---- Real-time Memory Report at c_bands before calling an iterative solver
           830 MiB given to the printing process from OS
           631 MiB allocation reported by mallinfo(arena+hblkhd)
       1450110 MiB available memory on the node where the printing process lives
------------------
     ethr =  3.98E-05,  avg # of iterations =  9.4

     negative rho (up, down):  0.000E+00 1.281E-03

     total cpu time spent up to now is     1889.9 secs

     total energy              =  -25711.48311202 Ry
     estimated scf accuracy    <       0.16874713 Ry

     total magnetization       =   107.29 Bohr mag/cell
     absolute magnetization    =   122.34 Bohr mag/cell

     iteration #  9     ecut=    80.00 Ry     beta= 0.20
     Davidson diagonalization with overlap

---- Real-time Memory Report at c_bands before calling an iterative solver
           832 MiB given to the printing process from OS
           633 MiB allocation reported by mallinfo(arena+hblkhd)
       1450022 MiB available memory on the node where the printing process lives
------------------
     ethr =  1.27E-05,  avg # of iterations = 10.0

     negative rho (up, down):  0.000E+00 9.188E-04

     total cpu time spent up to now is     2183.1 secs

     total energy              =  -25711.54299108 Ry
     estimated scf accuracy    <       0.18829498 Ry

     total magnetization       =   108.37 Bohr mag/cell
     absolute magnetization    =   122.01 Bohr mag/cell

     iteration # 10     ecut=    80.00 Ry     beta= 0.20
     Davidson diagonalization with overlap

---- Real-time Memory Report at c_bands before calling an iterative solver
           833 MiB given to the printing process from OS
           635 MiB allocation reported by mallinfo(arena+hblkhd)
       1449838 MiB available memory on the node where the printing process lives
------------------
     ethr =  1.27E-05,  avg # of iterations =  3.8

     negative rho (up, down):  0.000E+00 9.164E-04

     total cpu time spent up to now is     2408.0 secs

     total energy              =  -25711.55531794 Ry
     estimated scf accuracy    <       0.14477914 Ry

     total magnetization       =   108.20 Bohr mag/cell
     absolute magnetization    =   120.36 Bohr mag/cell

     iteration # 11     ecut=    80.00 Ry     beta= 0.20
     Davidson diagonalization with overlap

---- Real-time Memory Report at c_bands before calling an iterative solver
           835 MiB given to the printing process from OS
           636 MiB allocation reported by mallinfo(arena+hblkhd)
       1449886 MiB available memory on the node where the printing process lives
------------------
     ethr =  1.09E-05,  avg # of iterations =  1.6

     negative rho (up, down):  0.000E+00 1.007E-03

     total cpu time spent up to now is     2601.3 secs

     total energy              =  -25711.55148980 Ry
     estimated scf accuracy    <       0.05229079 Ry

     total magnetization       =   107.79 Bohr mag/cell
     absolute magnetization    =   119.69 Bohr mag/cell

     iteration # 12     ecut=    80.00 Ry     beta= 0.20
     Davidson diagonalization with overlap

---- Real-time Memory Report at c_bands before calling an iterative solver
           835 MiB given to the printing process from OS
           636 MiB allocation reported by mallinfo(arena+hblkhd)
       1449831 MiB available memory on the node where the printing process lives
------------------
     ethr =  3.92E-06,  avg # of iterations =  9.0

     negative rho (up, down):  0.000E+00 1.089E-03

     total cpu time spent up to now is     2891.4 secs

     total energy              =  -25711.57237635 Ry
     estimated scf accuracy    <       0.03250368 Ry

     total magnetization       =   106.08 Bohr mag/cell
     absolute magnetization    =   116.60 Bohr mag/cell

     iteration # 13     ecut=    80.00 Ry     beta= 0.20
     Davidson diagonalization with overlap

---- Real-time Memory Report at c_bands before calling an iterative solver
           835 MiB given to the printing process from OS
           636 MiB allocation reported by mallinfo(arena+hblkhd)
       1449803 MiB available memory on the node where the printing process lives
------------------
     ethr =  2.44E-06,  avg # of iterations =  3.0

     negative rho (up, down):  0.000E+00 1.122E-03

     total cpu time spent up to now is     3120.5 secs

     total energy              =  -25711.57741974 Ry
     estimated scf accuracy    <       0.00989316 Ry

     total magnetization       =   106.12 Bohr mag/cell
     absolute magnetization    =   116.20 Bohr mag/cell

     iteration # 14     ecut=    80.00 Ry     beta= 0.20
     Davidson diagonalization with overlap

---- Real-time Memory Report at c_bands before calling an iterative solver
           835 MiB given to the printing process from OS
           636 MiB allocation reported by mallinfo(arena+hblkhd)
       1449769 MiB available memory on the node where the printing process lives
------------------
     ethr =  7.42E-07,  avg # of iterations =  5.5

     negative rho (up, down):  0.000E+00 1.135E-03

     total cpu time spent up to now is     3385.9 secs

     total energy              =  -25711.57808258 Ry
     estimated scf accuracy    <       0.00347886 Ry

     total magnetization       =   106.36 Bohr mag/cell
     absolute magnetization    =   116.52 Bohr mag/cell

     iteration # 15     ecut=    80.00 Ry     beta= 0.20
     Davidson diagonalization with overlap

---- Real-time Memory Report at c_bands before calling an iterative solver
           835 MiB given to the printing process from OS
           636 MiB allocation reported by mallinfo(arena+hblkhd)
       1449749 MiB available memory on the node where the printing process lives
------------------
     ethr =  2.61E-07,  avg # of iterations =  5.0

     negative rho (up, down):  0.000E+00 1.150E-03

     total cpu time spent up to now is     3660.9 secs

     total energy              =  -25711.58069869 Ry
     estimated scf accuracy    <       0.00072331 Ry

     total magnetization       =   105.74 Bohr mag/cell
     absolute magnetization    =   115.62 Bohr mag/cell

     iteration # 16     ecut=    80.00 Ry     beta= 0.20
     Davidson diagonalization with overlap

---- Real-time Memory Report at c_bands before calling an iterative solver
           835 MiB given to the printing process from OS
           636 MiB allocation reported by mallinfo(arena+hblkhd)
       1449773 MiB available memory on the node where the printing process lives
------------------
     ethr =  5.43E-08,  avg # of iterations =  4.3

     negative rho (up, down):  0.000E+00 1.145E-03

     total cpu time spent up to now is     3963.9 secs

     total energy              =  -25711.58128415 Ry
     estimated scf accuracy    <       0.00082685 Ry

     total magnetization       =   105.76 Bohr mag/cell
     absolute magnetization    =   115.68 Bohr mag/cell

     iteration # 17     ecut=    80.00 Ry     beta= 0.20
     Davidson diagonalization with overlap

---- Real-time Memory Report at c_bands before calling an iterative solver
           835 MiB given to the printing process from OS
           636 MiB allocation reported by mallinfo(arena+hblkhd)
       1449615 MiB available memory on the node where the printing process lives
------------------
     ethr =  5.43E-08,  avg # of iterations =  2.2

     negative rho (up, down):  0.000E+00 1.145E-03

     total cpu time spent up to now is     4198.0 secs

     total energy              =  -25711.58164642 Ry
     estimated scf accuracy    <       0.00006156 Ry

     total magnetization       =   105.96 Bohr mag/cell
     absolute magnetization    =   116.04 Bohr mag/cell

     iteration # 18     ecut=    80.00 Ry     beta= 0.20
     Davidson diagonalization with overlap

---- Real-time Memory Report at c_bands before calling an iterative solver
           835 MiB given to the printing process from OS
           636 MiB allocation reported by mallinfo(arena+hblkhd)
       1449655 MiB available memory on the node where the printing process lives
------------------
     ethr =  4.62E-09,  avg # of iterations =  5.0

     negative rho (up, down):  0.000E+00 1.142E-03

     total cpu time spent up to now is     4498.1 secs

     total energy              =  -25711.58178015 Ry
     estimated scf accuracy    <       0.00003817 Ry

     total magnetization       =   105.96 Bohr mag/cell
     absolute magnetization    =   116.04 Bohr mag/cell

     iteration # 19     ecut=    80.00 Ry     beta= 0.20
     Davidson diagonalization with overlap

---- Real-time Memory Report at c_bands before calling an iterative solver
           835 MiB given to the printing process from OS
           636 MiB allocation reported by mallinfo(arena+hblkhd)
       1449688 MiB available memory on the node where the printing process lives
------------------
     ethr =  2.86E-09,  avg # of iterations =  2.0

     negative rho (up, down):  0.000E+00 1.145E-03

     total cpu time spent up to now is     4731.8 secs

     total energy              =  -25711.58185762 Ry
     estimated scf accuracy    <       0.00000967 Ry

     total magnetization       =   105.93 Bohr mag/cell
     absolute magnetization    =   116.02 Bohr mag/cell

     iteration # 20     ecut=    80.00 Ry     beta= 0.20
     Davidson diagonalization with overlap

---- Real-time Memory Report at c_bands before calling an iterative solver
           835 MiB given to the printing process from OS
           636 MiB allocation reported by mallinfo(arena+hblkhd)
       1449449 MiB available memory on the node where the printing process lives
------------------
     ethr =  7.26E-10,  avg # of iterations =  4.5

     negative rho (up, down):  0.000E+00 1.148E-03

     total cpu time spent up to now is     4984.7 secs

     total energy              =  -25711.58190172 Ry
     estimated scf accuracy    <       0.00000472 Ry

     total magnetization       =   105.92 Bohr mag/cell
     absolute magnetization    =   116.00 Bohr mag/cell

     iteration # 21     ecut=    80.00 Ry     beta= 0.20
     Davidson diagonalization with overlap

---- Real-time Memory Report at c_bands before calling an iterative solver
           835 MiB given to the printing process from OS
           636 MiB allocation reported by mallinfo(arena+hblkhd)
       1449484 MiB available memory on the node where the printing process lives
------------------
     ethr =  3.54E-10,  avg # of iterations =  2.1

     negative rho (up, down):  0.000E+00 1.150E-03

     total cpu time spent up to now is     5218.4 secs

     total energy              =  -25711.58192667 Ry
     estimated scf accuracy    <       0.00000230 Ry

     total magnetization       =   105.93 Bohr mag/cell
     absolute magnetization    =   116.01 Bohr mag/cell

     iteration # 22     ecut=    80.00 Ry     beta= 0.20
     Davidson diagonalization with overlap

---- Real-time Memory Report at c_bands before calling an iterative solver
           835 MiB given to the printing process from OS
           636 MiB allocation reported by mallinfo(arena+hblkhd)
       1449516 MiB available memory on the node where the printing process lives
------------------
     ethr =  1.73E-10,  avg # of iterations =  2.0

     negative rho (up, down):  0.000E+00 1.151E-03

     total cpu time spent up to now is     5423.0 secs

     total energy              =  -25711.58194286 Ry
     estimated scf accuracy    <       0.00000109 Ry

     total magnetization       =   105.92 Bohr mag/cell
     absolute magnetization    =   116.01 Bohr mag/cell

     iteration # 23     ecut=    80.00 Ry     beta= 0.20
     Davidson diagonalization with overlap

---- Real-time Memory Report at c_bands before calling an iterative solver
           835 MiB given to the printing process from OS
           636 MiB allocation reported by mallinfo(arena+hblkhd)
       1449555 MiB available memory on the node where the printing process lives
------------------
     ethr =  8.14E-11,  avg # of iterations =  2.3

     negative rho (up, down):  0.000E+00 1.151E-03

     total cpu time spent up to now is     5654.7 secs

     total energy              =  -25711.58195282 Ry
     estimated scf accuracy    <       0.00000050 Ry

     total magnetization       =   105.92 Bohr mag/cell
     absolute magnetization    =   116.01 Bohr mag/cell

     iteration # 24     ecut=    80.00 Ry     beta= 0.20
     Davidson diagonalization with overlap

---- Real-time Memory Report at c_bands before calling an iterative solver
           835 MiB given to the printing process from OS
           636 MiB allocation reported by mallinfo(arena+hblkhd)
       1449491 MiB available memory on the node where the printing process lives
------------------
     ethr =  3.78E-11,  avg # of iterations =  4.3

     negative rho (up, down):  0.000E+00 1.151E-03

     total cpu time spent up to now is     5909.7 secs

     total energy              =  -25711.58195843 Ry
     estimated scf accuracy    <       0.00000028 Ry

     total magnetization       =   105.92 Bohr mag/cell
     absolute magnetization    =   116.01 Bohr mag/cell

     iteration # 25     ecut=    80.00 Ry     beta= 0.20
     Davidson diagonalization with overlap

---- Real-time Memory Report at c_bands before calling an iterative solver
           835 MiB given to the printing process from OS
           636 MiB allocation reported by mallinfo(arena+hblkhd)
       1449528 MiB available memory on the node where the printing process lives
------------------
     ethr =  2.11E-11,  avg # of iterations =  3.4

     negative rho (up, down):  0.000E+00 1.151E-03

     Magnetic moment per site  (integrated on atomic sphere of radius R)
     atom   1 (R=0.056)  charge= 11.9019  magn=  0.5387
     atom   2 (R=0.056)  charge= 11.8891  magn=  0.6670
     atom   3 (R=0.056)  charge= 11.8891  magn=  0.6670
     atom   4 (R=0.056)  charge= 11.8882  magn=  0.6653
     atom   5 (R=0.056)  charge= 11.8878  magn=  0.7169
     atom   6 (R=0.056)  charge= 11.8879  magn=  0.7169
     atom   7 (R=0.056)  charge= 11.8877  magn=  0.7101
     atom   8 (R=0.056)  charge= 11.8875  magn=  0.7205
     atom   9 (R=0.056)  charge= 11.8875  magn=  0.7205
     atom  10 (R=0.056)  charge= 11.8877  magn=  0.7101
     atom  11 (R=0.056)  charge= 11.8875  magn=  0.7205
     atom  12 (R=0.056)  charge= 11.8875  magn=  0.7205
     atom  13 (R=0.056)  charge= 11.8882  magn=  0.6653
     atom  14 (R=0.056)  charge= 11.8878  magn=  0.7169
     atom  15 (R=0.056)  charge= 11.8879  magn=  0.7169
     atom  16 (R=0.056)  charge= 11.8877  magn=  0.7101
     atom  17 (R=0.056)  charge= 11.8875  magn=  0.7205
     atom  18 (R=0.056)  charge= 11.8875  magn=  0.7205
     atom  19 (R=0.056)  charge= 11.8877  magn=  0.7101
     atom  20 (R=0.056)  charge= 11.8875  magn=  0.7205
     atom  21 (R=0.056)  charge= 11.8875  magn=  0.7205
     atom  22 (R=0.056)  charge= 11.9019  magn=  0.5387
     atom  23 (R=0.056)  charge= 11.8891  magn=  0.6670
     atom  24 (R=0.056)  charge= 11.8891  magn=  0.6670
     atom  25 (R=0.056)  charge= 11.9019  magn=  0.5387
     atom  26 (R=0.056)  charge= 11.8891  magn=  0.6670
     atom  27 (R=0.056)  charge= 11.8891  magn=  0.6670
     atom  28 (R=0.056)  charge= 11.8877  magn=  0.7101
     atom  29 (R=0.056)  charge= 11.8875  magn=  0.7205
     atom  30 (R=0.056)  charge= 11.8875  magn=  0.7205
     atom  31 (R=0.056)  charge= 11.8882  magn=  0.6653
     atom  32 (R=0.056)  charge= 11.8878  magn=  0.7169
     atom  33 (R=0.056)  charge= 11.8879  magn=  0.7169
     atom  34 (R=0.056)  charge= 11.8877  magn=  0.7101
     atom  35 (R=0.056)  charge= 11.8875  magn=  0.7205
     atom  36 (R=0.056)  charge= 11.8875  magn=  0.7205
     atom  37 (R=0.056)  charge= 11.8699  magn=  1.8070
     atom  38 (R=0.056)  charge= 11.8690  magn=  1.8272
     atom  39 (R=0.056)  charge= 11.8699  magn=  1.8070
     atom  40 (R=0.056)  charge= 11.8709  magn=  1.7805
     atom  41 (R=0.056)  charge= 11.8696  magn=  1.8323
     atom  42 (R=0.056)  charge= 11.8709  magn=  1.7805
     atom  43 (R=0.056)  charge= 11.8698  magn=  1.7958
     atom  44 (R=0.056)  charge= 11.8701  magn=  1.7983
     atom  45 (R=0.056)  charge= 11.8698  magn=  1.7958
     atom  46 (R=0.056)  charge= 11.8698  magn=  1.7958
     atom  47 (R=0.056)  charge= 11.8701  magn=  1.7983
     atom  48 (R=0.056)  charge= 11.8698  magn=  1.7958
     atom  49 (R=0.056)  charge= 11.8709  magn=  1.7805
     atom  50 (R=0.056)  charge= 11.8696  magn=  1.8323
     atom  51 (R=0.056)  charge= 11.8709  magn=  1.7805
     atom  52 (R=0.056)  charge= 11.8698  magn=  1.7958
     atom  53 (R=0.056)  charge= 11.8701  magn=  1.7983
     atom  54 (R=0.056)  charge= 11.8698  magn=  1.7958
     atom  55 (R=0.056)  charge= 11.8698  magn=  1.7958
     atom  56 (R=0.056)  charge= 11.8701  magn=  1.7983
     atom  57 (R=0.056)  charge= 11.8698  magn=  1.7958
     atom  58 (R=0.056)  charge= 11.8699  magn=  1.8070
     atom  59 (R=0.056)  charge= 11.8690  magn=  1.8272
     atom  60 (R=0.056)  charge= 11.8699  magn=  1.8070
     atom  61 (R=0.056)  charge= 11.8699  magn=  1.8070
     atom  62 (R=0.056)  charge= 11.8690  magn=  1.8272
     atom  63 (R=0.056)  charge= 11.8699  magn=  1.8070
     atom  64 (R=0.056)  charge= 11.8698  magn=  1.7958
     atom  65 (R=0.056)  charge= 11.8701  magn=  1.7983
     atom  66 (R=0.056)  charge= 11.8698  magn=  1.7958
     atom  67 (R=0.056)  charge= 11.8709  magn=  1.7805
     atom  68 (R=0.056)  charge= 11.8696  magn=  1.8323
     atom  69 (R=0.056)  charge= 11.8709  magn=  1.7805
     atom  70 (R=0.056)  charge= 11.8698  magn=  1.7958
     atom  71 (R=0.056)  charge= 11.8701  magn=  1.7983
     atom  72 (R=0.056)  charge= 11.8698  magn=  1.7958
     atom  73 (R=0.064)  charge=  1.4295  magn= -0.0266
     atom  74 (R=0.064)  charge=  1.4278  magn= -0.0274
     atom  75 (R=0.064)  charge=  1.4278  magn= -0.0274
     atom  76 (R=0.064)  charge=  1.4295  magn= -0.0266
     atom  77 (R=0.064)  charge=  1.4278  magn= -0.0274
     atom  78 (R=0.064)  charge=  1.4278  magn= -0.0274
     atom  79 (R=0.064)  charge=  1.4276  magn= -0.0274
     atom  80 (R=0.064)  charge=  1.4282  magn= -0.0280
     atom  81 (R=0.064)  charge=  1.4282  magn= -0.0280
     atom  82 (R=0.064)  charge=  1.4295  magn= -0.0266
     atom  83 (R=0.064)  charge=  1.4278  magn= -0.0274
     atom  84 (R=0.064)  charge=  1.4278  magn= -0.0274
     atom  85 (R=0.064)  charge=  1.4295  magn= -0.0266
     atom  86 (R=0.064)  charge=  1.4278  magn= -0.0274
     atom  87 (R=0.064)  charge=  1.4278  magn= -0.0274
     atom  88 (R=0.064)  charge=  1.4276  magn= -0.0274
     atom  89 (R=0.064)  charge=  1.4282  magn= -0.0280
     atom  90 (R=0.064)  charge=  1.4282  magn= -0.0280
     atom  91 (R=0.064)  charge=  1.4295  magn= -0.0266
     atom  92 (R=0.064)  charge=  1.4278  magn= -0.0274
     atom  93 (R=0.064)  charge=  1.4278  magn= -0.0274
     atom  94 (R=0.064)  charge=  1.4295  magn= -0.0266
     atom  95 (R=0.064)  charge=  1.4278  magn= -0.0274
     atom  96 (R=0.064)  charge=  1.4278  magn= -0.0274
     atom  97 (R=0.064)  charge=  1.4275  magn= -0.0272
     atom  98 (R=0.064)  charge=  1.4417  magn= -0.0212
     atom  99 (R=0.064)  charge=  1.4275  magn= -0.0272
     atom 100 (R=0.064)  charge=  1.4362  magn= -0.0245
     atom 101 (R=0.064)  charge=  1.4375  magn= -0.0245
     atom 102 (R=0.064)  charge=  1.4362  magn= -0.0245
     atom 103 (R=0.064)  charge=  1.4362  magn= -0.0245
     atom 104 (R=0.064)  charge=  1.4375  magn= -0.0245
     atom 105 (R=0.064)  charge=  1.4362  magn= -0.0245
     atom 106 (R=0.064)  charge=  1.4362  magn= -0.0245
     atom 107 (R=0.064)  charge=  1.4375  magn= -0.0245
     atom 108 (R=0.064)  charge=  1.4362  magn= -0.0245
     atom 109 (R=0.056)  charge=  1.0583  magn= -0.0011

     total cpu time spent up to now is     6151.4 secs

     End of self-consistent calculation

 ------ SPIN UP ------------


          k = 0.0000 0.0000 0.0000 (100519 PWs)   bands (ev):

   -71.2187 -71.2182 -71.2181 -71.2132 -71.2132 -71.2131 -71.1728 -71.1728
   -71.1720 -71.1719 -71.1718 -71.1718 -71.1717 -71.1717 -71.1717 -71.1716
   -71.1715 -71.1715 -71.1699 -71.1698 -71.1697 -71.1696 -71.1688 -71.1687
   -71.1686 -71.1685 -71.1685 -71.1685 -71.1684 -71.1683 -71.1282 -71.1280
   -71.1277 -71.1277 -71.1275 -71.1275 -70.0223 -70.0223 -70.0222 -70.0222
   -70.0221 -70.0220 -70.0105 -70.0104 -70.0103 -70.0103 -70.0103 -70.0102
   -70.0099 -70.0099 -70.0098 -70.0098 -70.0096 -70.0095 -70.0074 -70.0074
   -70.0072 -69.9988 -69.9988 -69.9986 -69.9818 -69.9816 -69.9712 -69.9711
   -69.9708 -69.9706 -69.9648 -69.9648 -69.9643 -69.8969 -69.8899 -69.8898
   -37.3522 -37.3518 -37.3515 -37.3455 -37.3455 -37.3453 -37.3083 -37.3081
   -37.3080 -37.3073 -37.3067 -37.3056 -37.3056 -37.3050 -37.3049 -37.3042
   -37.3041 -37.3037 -37.3036 -37.3035 -37.3024 -37.3024 -37.3015 -37.3014
   -37.2988 -37.2987 -37.2964 -37.2964 -37.2957 -37.2957 -37.2704 -37.2693
   -37.2690 -37.2683 -37.2679 -37.2668 -37.2640 -37.2636 -37.2635 -37.2596
   -37.2596 -37.2571 -37.2448 -37.2403 -37.2402 -37.2302 -37.2299 -37.2278
   -37.2177 -37.2177 -37.2170 -37.2170 -37.2169 -37.2157 -37.2144 -37.2136
   -37.2122 -37.2121 -37.2118 -37.2117 -37.2115 -37.2114 -37.2112 -37.2112
   -37.2110 -37.2105 -37.2104 -37.2099 -37.2055 -37.2053 -37.2053 -37.2047
   -37.2046 -37.2042 -37.2032 -37.2032 -37.2031 -37.2031 -37.2030 -37.2009
   -37.2006 -37.2002 -37.1968 -37.1967 -37.1961 -37.1960 -37.1957 -37.1954
   -37.1953 -37.1950 -37.1947 -37.1947 -37.1920 -37.1920 -37.1918 -37.1917
   -37.1798 -37.1789 -37.1779 -37.1776 -37.1775 -37.1773 -37.1372 -37.1371
   -37.1367 -37.1366 -37.1360 -37.1357 -36.3121 -36.3119 -36.3118 -36.3115
   -36.3111 -36.3110 -36.2933 -36.2931 -36.2928 -36.2758 -36.2751 -36.2526
   -36.2223 -36.2223 -36.2220 -36.2215 -36.2213 -36.2213 -36.2212 -36.2208
   -36.2208 -36.2207 -36.2206 -36.2204 -36.2144 -36.2143 -36.2141 -36.1924
   -36.1920 -36.1920 -36.1916 -36.1833 -36.1832 -36.1828 -36.1822 -36.1821
   -36.0726 -36.0720 -36.0719 -36.0718 -36.0718 -36.0714 -36.0707 -36.0706
   -36.0706 -36.0705 -36.0701 -36.0701 -36.0524 -36.0522 -36.0521 -36.0424
   -36.0421 -36.0419 -36.0404 -36.0396 -36.0396 -36.0394 -36.0392 -36.0391
   -36.0389 -36.0365 -36.0364 -36.0348 -36.0344 -36.0343 -36.0262 -36.0261
   -36.0258 -36.0257 -36.0253 -36.0246 -36.0244 -36.0229 -36.0228 -36.0228
   -36.0226 -36.0225 -36.0225 -36.0220 -36.0218 -36.0214 -36.0193 -36.0192
   -36.0189 -36.0133 -36.0132 -36.0130 -36.0098 -36.0094 -36.0090 -36.0041
   -35.9999 -35.9966 -35.9961 -35.9918 -35.9914 -35.9881 -35.9878 -35.9751
   -35.9750 -35.9746 -35.9275 -35.9200 -35.9199 -35.8929 -35.8928 -35.8721
     3.2053   3.8331   4.3424   4.3426   4.3587   4.3677   4.4327   4.4495
     4.4497   4.8859   5.0243   5.1482   5.1484   5.1536   5.1539   5.2406
     5.2446   5.2446   5.2452   5.2686   5.2687   5.3391   5.4064   5.4066
     5.4361   5.7100   5.7126   5.8164   5.8233   5.8292   5.8295   5.8448
     5.8451   5.8974   6.1987   6.2187   8.3302   9.4979   9.4982   9.5126
    10.0257  10.0684  10.0684  10.0810  10.0811  10.3835  10.3837  10.3894
    10.4501  10.4501  10.4522  10.4554  10.4710  10.4711  10.4988  10.5583
    10.6599  10.6659  10.6659  10.6782  10.6783  10.7044  10.7045  10.7092
    10.7959  10.7960  10.8042  10.8806  10.9187  10.9187  11.0389  11.2171
    11.2468  11.2469  11.2474  11.2503  11.2503  11.2720  11.2728  11.2974
    11.2979  11.6036  11.6036  11.6218  11.6221  11.8386  11.8422  11.8445
    11.8447  11.8457  11.8458  11.8481  11.9089  11.9103  12.0083  12.0084
    12.0179  12.0376  12.0583  12.0584  12.0682  12.0682  12.1549  12.2767
    12.3158  12.3334  12.3334  12.3413  12.3414  12.3829  12.3994  12.3996
    12.4000  12.4013  12.4014  12.4277  12.4733  12.4734  12.4873  12.4896
    12.4896  12.4927  12.4972  12.4972  12.5027  12.5029  12.7018  12.7938
    12.8118  12.8120  12.8181  12.8358  12.8373  12.8374  12.8474  12.8476
    12.9031  12.9033  12.9618  12.9767  12.9771  13.1567  13.1576  13.1577
    13.2735  13.4823  13.4823  13.5161  13.5162  13.5286  13.5287  13.6726
    13.7470  13.7471  13.7571  13.7595  13.7595  13.7677  13.7828  13.7829
    13.7889  13.7919  13.7919  13.7930  13.7963  13.8001  13.8002  13.8072
    13.8072  13.8201  13.8389  13.8389  13.8998  13.8999  13.9474  13.9475
    13.9575  13.9604  13.9643  13.9647  13.9660  13.9663  13.9724  13.9726
    13.9733  13.9734  13.9789  13.9850  13.9995  14.0008  14.0009  14.0479
    14.0646  14.0647  14.0686  14.0686  14.0902  14.1063  14.1527  14.1529
    14.1716  14.1763  14.1764  14.1788  14.1789  14.1975  14.2008  14.2024
    14.2025  14.2119  14.2119  14.2137  14.2398  14.2559  14.2880  14.2881
    14.3260  14.3697  14.3698  14.3970  14.3970  14.4154  14.4155  14.4297
    14.4300  14.6449  14.6554  14.6556  14.6747  14.6758  14.6853  14.6899
    14.6899  14.7177  14.7655  14.7656  14.8939  14.8940  14.8972  14.9084
    14.9085  14.9086  14.9087  14.9347  14.9386  14.9401  14.9402  14.9451
    14.9452  15.0029  15.0244  15.0250  15.0364  15.0556  15.0556  15.0686
    15.0687  15.0770  15.0780  15.0780  15.0831  15.0853  15.1385  15.1448
    15.1448  15.1452  15.1535  15.1535  15.1611  15.1787  15.1839  15.1839
    15.1946  15.1946  15.2023  15.2314  15.2364  15.2365  15.2366  15.2367
    15.2371  15.2450  15.2517  15.2517  15.2639  15.2639  15.2773  15.3063
    15.3063  15.3112  15.3113  15.3137  15.3137  15.3180  15.3258  15.3259
    15.3270  15.3271  15.3472  15.3472  15.3502  15.3630  15.3683  15.3831
    15.3833  15.3885  15.3885  15.4408  15.4516  15.4518  15.5506  15.5541
    15.5541  15.6342  15.6526  15.6527  15.6587  15.6588  15.6664  15.6885
    15.7061  15.7126  15.7127  15.7260  15.7261  15.7264  15.7390  15.7390
    15.7466  15.7924  15.7924  15.7943  15.7979  15.8027  15.8027  15.9200
    15.9201  15.9250  15.9251  15.9456  15.9457  15.9636  15.9637  15.9645
    15.9645  15.9675  15.9687  15.9740  16.0064  16.0066  16.0308  16.0391
    16.0391  16.0610  16.0611  16.0667  16.0738  16.0833  16.0865  16.0866
    16.0934  16.1061  16.1062  16.1091  16.1092  16.1249  16.1294  16.1447
    16.1447  16.1495  16.1495  16.1615  16.2264  16.2424  16.2564  16.3289
    16.3290  16.3331  16.3332  16.3354  16.3510  16.4112  16.4112  16.4479
    16.4480  16.4487  16.4514  16.5037  16.5037  16.5050  16.5051  16.5102
    16.5191  16.5233  16.5234  16.5298  16.5591  16.5592  16.5857  16.6293
    16.6293  16.6665  16.6665  16.6715  16.6829  16.6831  16.6846  16.6847
    16.6941  16.6941  16.7321  16.7322  16.7463  16.7492  16.7608  16.7608
    16.7661  16.7662  16.7822  16.7844  16.7848  16.8100  16.8100  16.8354
    16.8354  16.8376  16.8413  16.9395  16.9395  16.9455  16.9469  16.9561
    16.9562  17.2245  17.3007  17.3018  17.4797  17.4967  18.1647  18.1700
    18.1801  18.1803  18.1806  18.1808  18.1817  18.2467  18.2467  18.2631
    18.2985  18.3081  18.3083  18.3121  18.3122  18.3482  18.3542  18.5467
    18.5547  18.5590  18.5593  18.5778  18.5780  18.6129  18.6273  18.6337
    18.6526  18.6527  18.7870  18.7871  18.7950  18.7992  18.7993  18.8045
    18.9547  18.9675  18.9676  18.9705  18.9708  19.0069  19.0083  19.0465
    19.0475  19.0478  19.0720  19.0723  19.1292  19.1293  19.1756  19.4746
    19.4749  19.4929  19.4932  19.7336  19.7358  19.7359  19.7388  19.7389
    19.7409  20.3861  20.4868  20.4871  20.5389  20.6855  20.7091  20.7091
    20.7581  20.9508  20.9513  20.9647  20.9653  21.0271  21.0272  21.0380

     occupation numbers 
     1.0000   1.0000   1.0000   1.0000   1.0000   1.0000   1.0000   1.0000
     1.0000   1.0000   1.0000   1.0000   1.0000   1.0000   1.0000   1.0000
     1.0000   1.0000   1.0000   1.0000   1.0000   1.0000   1.0000   1.0000
     1.0000   1.0000   1.0000   1.0000   1.0000   1.0000   1.0000   1.0000
     1.0000   1.0000   1.0000   1.0000   1.0000   1.0000   1.0000   1.0000
     1.0000   1.0000   1.0000   1.0000   1.0000   1.0000   1.0000   1.0000
     1.0000   1.0000   1.0000   1.0000   1.0000   1.0000   1.0000   1.0000
     1.0000   1.0000   1.0000   1.0000   1.0000   1.0000   1.0000   1.0000
     1.0000   1.0000   1.0000   1.0000   1.0000   1.0000   1.0000   1.0000
     1.0000   1.0000   1.0000   1.0000   1.0000   1.0000   1.0000   1.0000
     1.0000   1.0000   1.0000   1.0000   1.0000   1.0000   1.0000   1.0000
     1.0000   1.0000   1.0000   1.0000   1.0000   1.0000   1.0000   1.0000
     1.0000   1.0000   1.0000   1.0000   1.0000   1.0000   1.0000   1.0000
     1.0000   1.0000   1.0000   1.0000   1.0000   1.0000   1.0000   1.0000
     1.0000   1.0000   1.0000   1.0000   1.0000   1.0000   1.0000   1.0000
     1.0000   1.0000   1.0000   1.0000   1.0000   1.0000   1.0000   1.0000
     1.0000   1.0000   1.0000   1.0000   1.0000   1.0000   1.0000   1.0000
     1.0000   1.0000   1.0000   1.0000   1.0000   1.0000   1.0000   1.0000
     1.0000   1.0000   1.0000   1.0000   1.0000   1.0000   1.0000   1.0000
     1.0000   1.0000   1.0000   1.0000   1.0000   1.0000   1.0000   1.0000
     1.0000   1.0000   1.0000   1.0000   1.0000   1.0000   1.0000   1.0000
     1.0000   1.0000   1.0000   1.0000   1.0000   1.0000   1.0000   1.0000
     1.0000   1.0000   1.0000   1.0000   1.0000   1.0000   1.0000   1.0000
     1.0000   1.0000   1.0000   1.0000   1.0000   1.0000   1.0000   1.0000
     1.0000   1.0000   1.0000   1.0000   1.0000   1.0000   1.0000   1.0000
     1.0000   1.0000   1.0000   1.0000   1.0000   1.0000   1.0000   1.0000
     1.0000   1.0000   1.0000   1.0000   1.0000   1.0000   1.0000   1.0000
     1.0000   1.0000   1.0000   1.0000   1.0000   1.0000   1.0000   1.0000
     1.0000   1.0000   1.0000   1.0000   1.0000   1.0000   1.0000   1.0000
     1.0000   1.0000   1.0000   1.0000   1.0000   1.0000   1.0000   1.0000
     1.0000   1.0000   1.0000   1.0000   1.0000   1.0000   1.0000   1.0000
     1.0000   1.0000   1.0000   1.0000   1.0000   1.0000   1.0000   1.0000
     1.0000   1.0000   1.0000   1.0000   1.0000   1.0000   1.0000   1.0000
     1.0000   1.0000   1.0000   1.0000   1.0000   1.0000   1.0000   1.0000
     1.0000   1.0000   1.0000   1.0000   1.0000   1.0000   1.0000   1.0000
     1.0000   1.0000   1.0000   1.0000   1.0000   1.0000   1.0000   1.0000
     1.0000   1.0000   1.0000   1.0000   1.0000   1.0000   1.0000   1.0000
     1.0000   1.0000   1.0000   1.0000   1.0000   1.0000   1.0000   1.0000
     1.0000   1.0000   1.0000   1.0000   1.0000   1.0000   1.0000   1.0000
     1.0000   1.0000   1.0000   1.0000   1.0000   1.0000   1.0000   1.0000
     1.0000   1.0000   1.0000   1.0000   1.0000   1.0000   1.0000   1.0000
     1.0000   1.0000   1.0000   1.0000   1.0000   1.0000   1.0000   1.0000
     1.0000   1.0000   1.0000   1.0000   1.0000   1.0000   1.0000   1.0000
     1.0000   1.0000   1.0000   1.0000   1.0000   1.0000   1.0000   1.0000
     1.0000   1.0000   1.0000   1.0000   1.0000   1.0000   1.0000   1.0000
     1.0000   1.0000   1.0000   1.0000   1.0000   1.0000   1.0000   1.0000
     1.0000   1.0000   1.0000   1.0000   1.0000   1.0000   1.0000   1.0000
     1.0000   1.0000   1.0000   1.0000   1.0000   1.0000   1.0000   1.0000
     1.0000   1.0000   1.0000   1.0000   1.0000   1.0000   1.0000   1.0000
     1.0000   1.0000   1.0000   1.0000   1.0000   1.0000   1.0000   1.0000
     1.0000   1.0000   1.0000   1.0000   1.0000   1.0000   1.0000   1.0000
     1.0000   1.0000   1.0000   1.0000   1.0000   1.0000   1.0000   1.0000
     1.0000   1.0000   1.0000   1.0000   1.0000   1.0000   1.0000   1.0000
     1.0000   1.0000   1.0000   1.0000   1.0000   1.0000   1.0000   1.0000
     1.0000   1.0000   1.0000   1.0000   1.0000   1.0000   1.0000   1.0000
     1.0000   1.0000   1.0000   1.0000   1.0000   1.0000   1.0000   1.0000
     1.0000   1.0000   1.0000   1.0000   1.0000   1.0000   1.0000   1.0000
     1.0000   1.0000   1.0000   1.0000   1.0000   1.0000   1.0000   1.0000
     1.0000   1.0000   1.0000   1.0000   1.0000   1.0000   1.0000   1.0000
     1.0000   1.0000   1.0000   1.0000   1.0000   1.0000   1.0000   1.0000
     1.0000   1.0000   1.0000   1.0000   1.0000   1.0000   1.0000   1.0000
     1.0000   1.0000   1.0000   1.0000   1.0000   1.0000   1.0000   1.0000
     1.0000   1.0000   1.0000   1.0000   1.0000   1.0000   1.0000   1.0000
     1.0000   1.0000   1.0000   1.0000   1.0000   1.0000   1.0000   1.0000
     1.0000   1.0000   1.0000   1.0000   1.0000   1.0000   1.0000   1.0000
     1.0000   1.0000   1.0000   1.0000   1.0000   1.0000   1.0000   1.0000
     1.0000   1.0000   1.0000   1.0000   1.0000   1.0000   1.0000   1.0000
     1.0000   1.0000   1.0000   1.0000   1.0000   1.0000   1.0000   1.0000
     1.0000   1.0000   1.0000   1.0000   1.0000   1.0000   1.0000   1.0000
     1.0000   1.0000   1.0000   1.0000   1.0000   1.0000   1.0000   1.0000
     1.0000   1.0000   1.0000   1.0000   1.0000   1.0000   1.0000   1.0000
     1.0000   1.0000   1.0000   1.0000   1.0000   1.0000   1.0000   1.0000
     1.0000   1.0000   1.0000   1.0000   1.0000   1.0000   1.0000   1.0000
     1.0000   1.0000   1.0000   1.0000   1.0000   1.0000   1.0000   1.0000
     1.0000   1.0000   1.0000   1.0000   1.0000   1.0000   1.0000   1.0000
     1.0000   1.0000   1.0000   1.0000   1.0000   1.0000   1.0000   1.0000
     1.0000   1.0000   1.0000   1.0000   1.0000   1.0000   1.0000   1.0000
     1.0000   1.0000   1.0000   1.0000   1.0000   1.0000   1.0000   1.0000
     1.0000   1.0000   1.0000   1.0000   1.0000   1.0000   1.0000   1.0000
     1.0000   1.0000   1.0000   1.0000   1.0000   1.0000   1.0000   1.0000
     1.0000   1.0000   1.0000   1.0000   1.0000   1.0000   1.0000   1.0000
     1.0000   1.0000   1.0000   1.0000   1.0000   1.0000   1.0000   1.0000
     1.0000   1.0000   1.0000   1.0000   1.0000   1.0000   1.0000   1.0000
     1.0000   1.0000   1.0000   1.0000   1.0000   1.0000   1.0000   1.0000
     1.0000   1.0000   1.0000   0.9999   0.9999   0.9999   0.9999   0.9999
     0.9998   0.9998   0.9998   0.9998   0.9996   0.9996   0.9994   0.9987
     0.9987   0.9976   0.9976   0.9974   0.9969   0.9969   0.9968   0.9968
     0.9963   0.9963   0.9935   0.9935   0.9920   0.9916   0.9902   0.9902
     0.9894   0.9894   0.9869   0.9865   0.9864   0.9811   0.9811   0.9741
     0.9741   0.9734   0.9722   0.9199   0.9199   0.9151   0.9140   0.9063
     0.9062   0.4693   0.3181   0.3162   0.0803   0.0679   0.0000   0.0000
     0.0000   0.0000   0.0000   0.0000   0.0000   0.0000   0.0000   0.0000
     0.0000   0.0000   0.0000   0.0000   0.0000   0.0000   0.0000   0.0000
     0.0000   0.0000   0.0000   0.0000   0.0000   0.0000   0.0000   0.0000
     0.0000   0.0000   0.0000   0.0000   0.0000   0.0000   0.0000   0.0000
     0.0000   0.0000   0.0000   0.0000   0.0000   0.0000   0.0000   0.0000
     0.0000   0.0000   0.0000   0.0000   0.0000   0.0000   0.0000   0.0000
     0.0000   0.0000   0.0000   0.0000   0.0000   0.0000   0.0000   0.0000
     0.0000   0.0000   0.0000   0.0000   0.0000   0.0000   0.0000   0.0000
     0.0000   0.0000   0.0000   0.0000   0.0000   0.0000   0.0000   0.0000

          k = 0.0000 0.0000 0.2850 (100651 PWs)   bands (ev):

   -71.2187 -71.2182 -71.2181 -71.2132 -71.2132 -71.2131 -71.1728 -71.1728
   -71.1720 -71.1719 -71.1718 -71.1718 -71.1717 -71.1717 -71.1717 -71.1716
   -71.1715 -71.1715 -71.1699 -71.1698 -71.1697 -71.1696 -71.1688 -71.1687
   -71.1686 -71.1686 -71.1685 -71.1685 -71.1684 -71.1683 -71.1282 -71.1280
   -71.1277 -71.1277 -71.1275 -71.1275 -70.0223 -70.0223 -70.0222 -70.0222
   -70.0221 -70.0220 -70.0105 -70.0104 -70.0103 -70.0103 -70.0103 -70.0102
   -70.0099 -70.0099 -70.0098 -70.0098 -70.0096 -70.0095 -70.0074 -70.0074
   -70.0072 -69.9988 -69.9988 -69.9986 -69.9818 -69.9816 -69.9712 -69.9711
   -69.9708 -69.9706 -69.9648 -69.9648 -69.9643 -69.8969 -69.8899 -69.8898
   -37.3523 -37.3518 -37.3515 -37.3456 -37.3455 -37.3454 -37.3083 -37.3081
   -37.3080 -37.3079 -37.3070 -37.3064 -37.3064 -37.3053 -37.3053 -37.3044
   -37.3040 -37.3039 -37.3031 -37.3027 -37.3010 -37.3010 -37.3006 -37.3005
   -37.2993 -37.2993 -37.2968 -37.2968 -37.2963 -37.2963 -37.2704 -37.2693
   -37.2690 -37.2682 -37.2679 -37.2669 -37.2641 -37.2637 -37.2636 -37.2596
   -37.2596 -37.2571 -37.2448 -37.2403 -37.2403 -37.2302 -37.2299 -37.2279
   -37.2177 -37.2177 -37.2170 -37.2170 -37.2168 -37.2157 -37.2145 -37.2135
   -37.2122 -37.2121 -37.2117 -37.2117 -37.2116 -37.2114 -37.2112 -37.2112
   -37.2111 -37.2105 -37.2104 -37.2099 -37.2054 -37.2053 -37.2053 -37.2047
   -37.2046 -37.2044 -37.2032 -37.2032 -37.2031 -37.2031 -37.2030 -37.2010
   -37.2006 -37.2001 -37.1967 -37.1967 -37.1961 -37.1960 -37.1958 -37.1955
   -37.1954 -37.1950 -37.1947 -37.1946 -37.1920 -37.1920 -37.1918 -37.1918
   -37.1798 -37.1790 -37.1779 -37.1777 -37.1775 -37.1773 -37.1372 -37.1371
   -37.1367 -37.1366 -37.1360 -37.1357 -36.3120 -36.3119 -36.3118 -36.3115
   -36.3112 -36.3110 -36.2932 -36.2931 -36.2928 -36.2758 -36.2751 -36.2526
   -36.2223 -36.2223 -36.2221 -36.2216 -36.2214 -36.2213 -36.2211 -36.2208
   -36.2208 -36.2207 -36.2207 -36.2205 -36.2144 -36.2143 -36.2141 -36.1923
   -36.1920 -36.1920 -36.1916 -36.1834 -36.1832 -36.1828 -36.1822 -36.1821
   -36.0726 -36.0720 -36.0719 -36.0718 -36.0718 -36.0714 -36.0707 -36.0706
   -36.0706 -36.0705 -36.0701 -36.0701 -36.0524 -36.0522 -36.0521 -36.0424
   -36.0421 -36.0419 -36.0404 -36.0396 -36.0396 -36.0395 -36.0393 -36.0392
   -36.0391 -36.0367 -36.0366 -36.0343 -36.0343 -36.0341 -36.0265 -36.0262
   -36.0258 -36.0257 -36.0253 -36.0248 -36.0246 -36.0230 -36.0230 -36.0227
   -36.0225 -36.0225 -36.0223 -36.0218 -36.0216 -36.0214 -36.0194 -36.0192
   -36.0189 -36.0134 -36.0133 -36.0131 -36.0098 -36.0094 -36.0091 -36.0042
   -35.9998 -35.9966 -35.9962 -35.9919 -35.9915 -35.9881 -35.9877 -35.9751
   -35.9750 -35.9746 -35.9275 -35.9200 -35.9199 -35.8929 -35.8928 -35.8721
     3.2728   3.7747   4.0351   4.4015   4.4017   4.4929   4.5094   4.5095
     4.6369   4.8361   4.8362   4.8363   4.9325   4.9477   4.9478   5.2573
     5.4035   5.4430   5.4432   5.4442   5.4444   5.4694   5.5131   5.5252
     5.5253   5.6166   5.6469   5.6828   5.6924   5.6926   5.9164   5.9228
     5.9235   5.9238   6.0983   6.2947   8.2302   9.5689   9.5691   9.5821
     9.8323   9.8326   9.9782  10.0130  10.0305  10.0361  10.0364  10.0429
    10.0431  10.3607  10.4524  10.4526  10.6757  10.6886  10.6889  10.6982
    10.6983  10.7215  10.7395  10.7396  10.7474  10.8041  10.8042  10.8117
    10.8117  10.8123  10.8149  10.9517  10.9521  10.9750  10.9750  11.0765
    11.2752  11.2754  11.2880  11.3331  11.3574  11.3576  11.4940  11.5217
    11.5226  11.5287  11.5288  11.7639  11.8272  11.8603  11.8652  11.8652
    11.8811  11.8813  11.9778  11.9778  12.0093  12.0398  12.0398  12.0421
    12.0600  12.0955  12.1036  12.1036  12.1086  12.1215  12.1215  12.2304
    12.2682  12.2682  12.2932  12.3318  12.3435  12.3435  12.3533  12.3535
    12.3847  12.3848  12.3855  12.4072  12.4073  12.4102  12.4317  12.4318
    12.4337  12.4820  12.4857  12.4857  12.5358  12.6279  12.6279  12.6420
    12.6700  12.6701  12.7041  12.7205  12.7208  12.7241  12.7407  12.7410
    12.8690  12.8693  12.9997  13.0110  13.0112  13.2050  13.2115  13.2117
    13.3482  13.4749  13.4750  13.5539  13.5540  13.5724  13.5724  13.6408
    13.6787  13.6787  13.7214  13.7680  13.7681  13.7701  13.7840  13.7868
    13.7868  13.8145  13.8145  13.8176  13.8234  13.8236  13.8349  13.8349
    13.8372  13.8372  13.8415  13.8513  13.8740  13.8740  13.9142  13.9143
    13.9153  13.9298  13.9300  13.9327  13.9329  13.9382  13.9528  13.9529
    13.9601  13.9607  13.9612  13.9801  13.9802  13.9842  13.9923  14.0420
    14.0421  14.0489  14.0603  14.0603  14.0676  14.0803  14.0803  14.1205
    14.1250  14.1250  14.1323  14.1487  14.1487  14.1499  14.1944  14.1985
    14.1986  14.2075  14.2076  14.2239  14.2386  14.3248  14.3249  14.3282
    14.3570  14.3572  14.4302  14.4657  14.4657  14.5174  14.5175  14.5425
    14.5425  14.5580  14.5985  14.6551  14.6552  14.6581  14.6645  14.6730
    14.6731  14.7989  14.8377  14.8378  14.8638  14.8639  14.8735  14.8736
    14.8737  14.9378  14.9421  14.9423  14.9586  14.9612  14.9614  14.9809
    14.9948  15.0020  15.0020  15.0219  15.0274  15.0274  15.0627  15.0628
    15.0633  15.0673  15.0726  15.0743  15.0743  15.0984  15.0984  15.0988
    15.1135  15.1136  15.1160  15.1393  15.1414  15.1415  15.1507  15.1508
    15.1535  15.1535  15.1744  15.1777  15.1797  15.1833  15.1908  15.1908
    15.2224  15.2224  15.2355  15.2719  15.2719  15.2723  15.2934  15.2935
    15.2996  15.2996  15.3028  15.3386  15.3403  15.3404  15.3580  15.3720
    15.3720  15.3850  15.3851  15.3907  15.4329  15.4329  15.4410  15.4411
    15.4460  15.4565  15.4566  15.4640  15.4738  15.4738  15.5488  15.5488
    15.5516  15.6226  15.6338  15.6338  15.6803  15.6831  15.6831  15.6890
    15.7043  15.7043  15.7172  15.7396  15.7397  15.7452  15.7453  15.7595
    15.7661  15.7731  15.7731  15.7992  15.8183  15.8183  15.8537  15.8538
    15.8545  15.9320  15.9320  15.9512  15.9513  15.9527  15.9562  15.9627
    15.9628  15.9686  15.9721  15.9803  15.9803  15.9843  15.9945  15.9945
    15.9985  16.0020  16.0021  16.0192  16.0210  16.0211  16.0356  16.0357
    16.0380  16.0578  16.0580  16.0690  16.0981  16.1017  16.1018  16.1344
    16.1346  16.1384  16.2103  16.2160  16.2161  16.2347  16.2349  16.2377
    16.3582  16.3582  16.4037  16.4038  16.4038  16.4051  16.4137  16.4137
    16.4184  16.4420  16.4464  16.4482  16.4482  16.4975  16.5194  16.5195
    16.5230  16.5349  16.5349  16.5553  16.5639  16.5640  16.5738  16.5738
    16.5749  16.5872  16.6251  16.6251  16.6392  16.6393  16.6793  16.6794
    16.6817  16.6818  16.7133  16.7134  16.7158  16.7281  16.7282  16.7292
    16.7333  16.7983  16.7986  16.8379  16.8382  16.9091  16.9093  16.9098
    16.9879  16.9997  16.9998  17.0146  17.0178  17.0179  17.0472  17.2234
    17.2276  17.2276  17.2393  17.3767  17.4855  17.5962  17.9531  17.9768
    17.9769  18.0150  18.0152  18.0235  18.1222  18.1319  18.1497  18.1499
    18.2184  18.2750  18.2751  18.3270  18.3316  18.3317  18.3963  18.4182
    18.4183  18.4509  18.6112  18.6559  18.6564  18.6565  18.6874  18.7173
    18.7175  18.7227  18.7228  18.7270  18.7330  18.7346  18.7347  18.9055
    18.9058  18.9341  18.9658  18.9793  18.9795  19.0136  19.0138  19.0447
    19.0640  19.0641  19.0646  19.2261  19.2262  19.2680  19.3506  19.3816
    19.3818  19.6170  19.6170  19.6351  19.6563  19.6670  19.6671  19.8333
    20.0527  20.0667  20.0668  20.0756  20.0757  20.1214  20.4788  20.4793
    20.6565  20.6565  21.0308  21.1187  21.1225  21.1228  21.1344  21.1347

     occupation numbers 
     1.0000   1.0000   1.0000   1.0000   1.0000   1.0000   1.0000   1.0000
     1.0000   1.0000   1.0000   1.0000   1.0000   1.0000   1.0000   1.0000
     1.0000   1.0000   1.0000   1.0000   1.0000   1.0000   1.0000   1.0000
     1.0000   1.0000   1.0000   1.0000   1.0000   1.0000   1.0000   1.0000
     1.0000   1.0000   1.0000   1.0000   1.0000   1.0000   1.0000   1.0000
     1.0000   1.0000   1.0000   1.0000   1.0000   1.0000   1.0000   1.0000
     1.0000   1.0000   1.0000   1.0000   1.0000   1.0000   1.0000   1.0000
     1.0000   1.0000   1.0000   1.0000   1.0000   1.0000   1.0000   1.0000
     1.0000   1.0000   1.0000   1.0000   1.0000   1.0000   1.0000   1.0000
     1.0000   1.0000   1.0000   1.0000   1.0000   1.0000   1.0000   1.0000
     1.0000   1.0000   1.0000   1.0000   1.0000   1.0000   1.0000   1.0000
     1.0000   1.0000   1.0000   1.0000   1.0000   1.0000   1.0000   1.0000
     1.0000   1.0000   1.0000   1.0000   1.0000   1.0000   1.0000   1.0000
     1.0000   1.0000   1.0000   1.0000   1.0000   1.0000   1.0000   1.0000
     1.0000   1.0000   1.0000   1.0000   1.0000   1.0000   1.0000   1.0000
     1.0000   1.0000   1.0000   1.0000   1.0000   1.0000   1.0000   1.0000
     1.0000   1.0000   1.0000   1.0000   1.0000   1.0000   1.0000   1.0000
     1.0000   1.0000   1.0000   1.0000   1.0000   1.0000   1.0000   1.0000
     1.0000   1.0000   1.0000   1.0000   1.0000   1.0000   1.0000   1.0000
     1.0000   1.0000   1.0000   1.0000   1.0000   1.0000   1.0000   1.0000
     1.0000   1.0000   1.0000   1.0000   1.0000   1.0000   1.0000   1.0000
     1.0000   1.0000   1.0000   1.0000   1.0000   1.0000   1.0000   1.0000
     1.0000   1.0000   1.0000   1.0000   1.0000   1.0000   1.0000   1.0000
     1.0000   1.0000   1.0000   1.0000   1.0000   1.0000   1.0000   1.0000
     1.0000   1.0000   1.0000   1.0000   1.0000   1.0000   1.0000   1.0000
     1.0000   1.0000   1.0000   1.0000   1.0000   1.0000   1.0000   1.0000
     1.0000   1.0000   1.0000   1.0000   1.0000   1.0000   1.0000   1.0000
     1.0000   1.0000   1.0000   1.0000   1.0000   1.0000   1.0000   1.0000
     1.0000   1.0000   1.0000   1.0000   1.0000   1.0000   1.0000   1.0000
     1.0000   1.0000   1.0000   1.0000   1.0000   1.0000   1.0000   1.0000
     1.0000   1.0000   1.0000   1.0000   1.0000   1.0000   1.0000   1.0000
     1.0000   1.0000   1.0000   1.0000   1.0000   1.0000   1.0000   1.0000
     1.0000   1.0000   1.0000   1.0000   1.0000   1.0000   1.0000   1.0000
     1.0000   1.0000   1.0000   1.0000   1.0000   1.0000   1.0000   1.0000
     1.0000   1.0000   1.0000   1.0000   1.0000   1.0000   1.0000   1.0000
     1.0000   1.0000   1.0000   1.0000   1.0000   1.0000   1.0000   1.0000
     1.0000   1.0000   1.0000   1.0000   1.0000   1.0000   1.0000   1.0000
     1.0000   1.0000   1.0000   1.0000   1.0000   1.0000   1.0000   1.0000
     1.0000   1.0000   1.0000   1.0000   1.0000   1.0000   1.0000   1.0000
     1.0000   1.0000   1.0000   1.0000   1.0000   1.0000   1.0000   1.0000
     1.0000   1.0000   1.0000   1.0000   1.0000   1.0000   1.0000   1.0000
     1.0000   1.0000   1.0000   1.0000   1.0000   1.0000   1.0000   1.0000
     1.0000   1.0000   1.0000   1.0000   1.0000   1.0000   1.0000   1.0000
     1.0000   1.0000   1.0000   1.0000   1.0000   1.0000   1.0000   1.0000
     1.0000   1.0000   1.0000   1.0000   1.0000   1.0000   1.0000   1.0000
     1.0000   1.0000   1.0000   1.0000   1.0000   1.0000   1.0000   1.0000
     1.0000   1.0000   1.0000   1.0000   1.0000   1.0000   1.0000   1.0000
     1.0000   1.0000   1.0000   1.0000   1.0000   1.0000   1.0000   1.0000
     1.0000   1.0000   1.0000   1.0000   1.0000   1.0000   1.0000   1.0000
     1.0000   1.0000   1.0000   1.0000   1.0000   1.0000   1.0000   1.0000
     1.0000   1.0000   1.0000   1.0000   1.0000   1.0000   1.0000   1.0000
     1.0000   1.0000   1.0000   1.0000   1.0000   1.0000   1.0000   1.0000
     1.0000   1.0000   1.0000   1.0000   1.0000   1.0000   1.0000   1.0000
     1.0000   1.0000   1.0000   1.0000   1.0000   1.0000   1.0000   1.0000
     1.0000   1.0000   1.0000   1.0000   1.0000   1.0000   1.0000   1.0000
     1.0000   1.0000   1.0000   1.0000   1.0000   1.0000   1.0000   1.0000
     1.0000   1.0000   1.0000   1.0000   1.0000   1.0000   1.0000   1.0000
     1.0000   1.0000   1.0000   1.0000   1.0000   1.0000   1.0000   1.0000
     1.0000   1.0000   1.0000   1.0000   1.0000   1.0000   1.0000   1.0000
     1.0000   1.0000   1.0000   1.0000   1.0000   1.0000   1.0000   1.0000
     1.0000   1.0000   1.0000   1.0000   1.0000   1.0000   1.0000   1.0000
     1.0000   1.0000   1.0000   1.0000   1.0000   1.0000   1.0000   1.0000
     1.0000   1.0000   1.0000   1.0000   1.0000   1.0000   1.0000   1.0000
     1.0000   1.0000   1.0000   1.0000   1.0000   1.0000   1.0000   1.0000
     1.0000   1.0000   1.0000   1.0000   1.0000   1.0000   1.0000   1.0000
     1.0000   1.0000   1.0000   1.0000   1.0000   1.0000   1.0000   1.0000
     1.0000   1.0000   1.0000   1.0000   1.0000   1.0000   1.0000   1.0000
     1.0000   1.0000   1.0000   1.0000   1.0000   1.0000   1.0000   1.0000
     1.0000   1.0000   1.0000   1.0000   1.0000   1.0000   1.0000   1.0000
     1.0000   1.0000   1.0000   1.0000   1.0000   1.0000   1.0000   1.0000
     1.0000   1.0000   1.0000   1.0000   1.0000   1.0000   1.0000   1.0000
     1.0000   1.0000   1.0000   1.0000   1.0000   1.0000   1.0000   1.0000
     1.0000   1.0000   1.0000   1.0000   1.0000   1.0000   1.0000   1.0000
     1.0000   1.0000   1.0000   1.0000   1.0000   1.0000   1.0000   1.0000
     1.0000   1.0000   1.0000   1.0000   1.0000   1.0000   1.0000   1.0000
     1.0000   1.0000   1.0000   1.0000   1.0000   1.0000   1.0000   1.0000
     1.0000   1.0000   1.0000   1.0000   1.0000   1.0000   1.0000   1.0000
     1.0000   1.0000   1.0000   1.0000   1.0000   1.0000   1.0000   1.0000
     1.0000   1.0000   1.0000   1.0000   1.0000   1.0000   1.0000   1.0000
     1.0000   1.0000   1.0000   1.0000   1.0000   1.0000   1.0000   1.0000
     1.0000   1.0000   1.0000   1.0000   1.0000   1.0000   1.0000   1.0000
     1.0000   1.0000   1.0000   1.0000   1.0000   1.0000   1.0000   1.0000
     1.0000   1.0000   1.0000   1.0000   1.0000   1.0000   1.0000   1.0000
     1.0000   1.0000   1.0000   1.0000   1.0000   1.0000   1.0000   1.0000
     1.0000   1.0000   1.0000   1.0000   1.0000   0.9999   0.9998   0.9998
     0.9998   0.9998   0.9998   0.9997   0.9996   0.9996   0.9995   0.9995
     0.9995   0.9994   0.9988   0.9988   0.9985   0.9985   0.9971   0.9971
     0.9970   0.9970   0.9951   0.9951   0.9949   0.9938   0.9938   0.9937
     0.9934   0.9837   0.9837   0.9733   0.9732   0.9409   0.9408   0.9405
     0.8755   0.8624   0.8623   0.8447   0.8407   0.8406   0.8008   0.4717
     0.4630   0.4629   0.4389   0.1927   0.0759   0.0223   0.0001   0.0000
     0.0000   0.0000   0.0000   0.0000   0.0000   0.0000   0.0000   0.0000
     0.0000   0.0000   0.0000   0.0000   0.0000   0.0000   0.0000   0.0000
     0.0000   0.0000   0.0000   0.0000   0.0000   0.0000   0.0000   0.0000
     0.0000   0.0000   0.0000   0.0000   0.0000   0.0000   0.0000   0.0000
     0.0000   0.0000   0.0000   0.0000   0.0000   0.0000   0.0000   0.0000
     0.0000   0.0000   0.0000   0.0000   0.0000   0.0000   0.0000   0.0000
     0.0000   0.0000   0.0000   0.0000   0.0000   0.0000   0.0000   0.0000
     0.0000   0.0000   0.0000   0.0000   0.0000   0.0000   0.0000   0.0000
     0.0000   0.0000   0.0000   0.0000   0.0000   0.0000   0.0000   0.0000

          k = 0.0000 0.0000-0.5700 (100616 PWs)   bands (ev):

   -71.2187 -71.2182 -71.2181 -71.2132 -71.2132 -71.2131 -71.1728 -71.1728
   -71.1720 -71.1719 -71.1718 -71.1718 -71.1717 -71.1717 -71.1717 -71.1716
   -71.1715 -71.1715 -71.1699 -71.1698 -71.1697 -71.1695 -71.1688 -71.1687
   -71.1686 -71.1686 -71.1685 -71.1685 -71.1684 -71.1683 -71.1282 -71.1280
   -71.1277 -71.1277 -71.1275 -71.1275 -70.0223 -70.0223 -70.0222 -70.0222
   -70.0221 -70.0220 -70.0105 -70.0104 -70.0103 -70.0103 -70.0103 -70.0102
   -70.0099 -70.0099 -70.0098 -70.0098 -70.0096 -70.0095 -70.0074 -70.0074
   -70.0072 -69.9988 -69.9988 -69.9986 -69.9818 -69.9816 -69.9712 -69.9711
   -69.9708 -69.9706 -69.9648 -69.9648 -69.9643 -69.8969 -69.8899 -69.8898
   -37.3523 -37.3518 -37.3515 -37.3456 -37.3456 -37.3454 -37.3083 -37.3083
   -37.3081 -37.3080 -37.3072 -37.3070 -37.3069 -37.3055 -37.3055 -37.3045
   -37.3042 -37.3041 -37.3019 -37.3019 -37.3001 -37.2998 -37.2996 -37.2994
   -37.2994 -37.2992 -37.2977 -37.2975 -37.2974 -37.2972 -37.2703 -37.2693
   -37.2690 -37.2682 -37.2678 -37.2670 -37.2642 -37.2637 -37.2636 -37.2596
   -37.2596 -37.2571 -37.2449 -37.2403 -37.2403 -37.2302 -37.2299 -37.2278
   -37.2178 -37.2177 -37.2170 -37.2169 -37.2169 -37.2158 -37.2144 -37.2135
   -37.2123 -37.2122 -37.2117 -37.2117 -37.2116 -37.2114 -37.2112 -37.2112
   -37.2111 -37.2105 -37.2104 -37.2098 -37.2054 -37.2053 -37.2051 -37.2047
   -37.2046 -37.2046 -37.2032 -37.2032 -37.2031 -37.2031 -37.2029 -37.2011
   -37.2006 -37.2000 -37.1967 -37.1966 -37.1961 -37.1960 -37.1958 -37.1956
   -37.1955 -37.1950 -37.1946 -37.1946 -37.1920 -37.1920 -37.1918 -37.1917
   -37.1798 -37.1790 -37.1779 -37.1777 -37.1775 -37.1772 -37.1372 -37.1371
   -37.1367 -37.1366 -37.1360 -37.1357 -36.3120 -36.3119 -36.3118 -36.3115
   -36.3112 -36.3110 -36.2933 -36.2931 -36.2928 -36.2758 -36.2752 -36.2526
   -36.2223 -36.2222 -36.2221 -36.2216 -36.2214 -36.2213 -36.2211 -36.2208
   -36.2208 -36.2207 -36.2207 -36.2205 -36.2144 -36.2143 -36.2141 -36.1923
   -36.1920 -36.1919 -36.1917 -36.1834 -36.1832 -36.1828 -36.1822 -36.1821
   -36.0726 -36.0720 -36.0719 -36.0718 -36.0718 -36.0714 -36.0707 -36.0706
   -36.0706 -36.0706 -36.0701 -36.0700 -36.0524 -36.0522 -36.0521 -36.0424
   -36.0421 -36.0419 -36.0404 -36.0397 -36.0397 -36.0396 -36.0395 -36.0392
   -36.0391 -36.0368 -36.0367 -36.0341 -36.0340 -36.0337 -36.0268 -36.0262
   -36.0258 -36.0257 -36.0253 -36.0249 -36.0248 -36.0232 -36.0231 -36.0229
   -36.0224 -36.0223 -36.0219 -36.0217 -36.0216 -36.0213 -36.0193 -36.0192
   -36.0189 -36.0135 -36.0133 -36.0131 -36.0098 -36.0094 -36.0091 -36.0042
   -35.9998 -35.9966 -35.9962 -35.9919 -35.9915 -35.9881 -35.9877 -35.9751
   -35.9750 -35.9746 -35.9275 -35.9200 -35.9199 -35.8929 -35.8928 -35.8721
     3.4088   3.5775   4.0162   4.4964   4.5661   4.5663   4.5796   4.5798
     4.6645   4.6694   4.6698   4.6699   4.6963   4.6965   5.1701   5.3854
     5.4198   5.5116   5.5372   5.5374   5.5408   5.5552   5.5555   5.5635
     5.5650   5.5822   5.5825   5.6251   5.6365   5.6365   5.9293   5.9365
     5.9367   5.9873   6.0025   6.3270   8.1405   9.7139   9.7142   9.7590
     9.7592   9.7628   9.7806   9.7808   9.7945   9.7993   9.8535   9.8677
     9.8679  10.3251  10.6359  10.6363  10.6386  10.6387  10.6467  10.6674
    10.6676  10.7816  10.7881  10.7882  10.8015  10.8016  10.8090  10.8128
    10.8128  10.8266  10.8423  10.8437  10.8438  11.1150  11.1151  11.1461
    11.1462  11.2064  11.4164  11.4167  11.4344  11.5956  11.5965  11.6565
    11.7087  11.8121  11.8122  11.8166  11.8196  11.8208  11.8208  12.0026
    12.0260  12.0266  12.0304  12.0886  12.1620  12.1622  12.1682  12.1920
    12.1922  12.2192  12.2216  12.2216  12.2515  12.2555  12.2572  12.2627
    12.2646  12.2646  12.2660  12.2660  12.2720  12.2942  12.2943  12.2965
    12.3022  12.3023  12.3054  12.3055  12.3149  12.3288  12.3292  12.3504
    12.3515  12.3762  12.3763  12.3764  12.3764  12.4399  12.4400  12.4446
    12.4627  12.4721  12.4722  12.6719  12.6947  12.6949  12.7654  12.7655
    12.7718  12.7719  13.1411  13.1606  13.1608  13.1611  13.1617  13.1619
    13.4178  13.4649  13.4651  13.5967  13.5985  13.5987  13.6174  13.6175
    13.6897  13.6897  13.7041  13.7041  13.7116  13.7790  13.7891  13.7892
    13.8223  13.8223  13.8226  13.8228  13.8228  13.8316  13.8321  13.8344
    13.8345  13.8389  13.8394  13.8394  13.8502  13.8504  13.9075  13.9076
    13.9084  13.9290  13.9292  13.9345  13.9349  13.9351  13.9351  13.9352
    13.9473  13.9477  13.9479  13.9510  13.9515  13.9726  13.9755  13.9756
    14.0311  14.0393  14.0394  14.0432  14.0437  14.0481  14.0628  14.0629
    14.0674  14.0674  14.0715  14.0906  14.0906  14.1780  14.1890  14.2041
    14.2042  14.2264  14.3295  14.3376  14.3377  14.3477  14.3478  14.3664
    14.3665  14.3721  14.4942  14.5013  14.5014  14.5046  14.5047  14.5065
    14.5196  14.5433  14.5938  14.5938  14.5952  14.5952  14.7719  14.8287
    14.8464  14.8464  14.8479  14.8479  14.8610  14.8703  14.8709  14.8710
    14.8750  14.8750  14.8814  14.8814  14.9440  14.9631  14.9702  14.9702
    14.9713  14.9842  14.9844  15.0281  15.0283  15.0420  15.0432  15.0432
    15.0450  15.0617  15.0619  15.0652  15.0653  15.0662  15.0682  15.0787
    15.0787  15.1287  15.1288  15.1370  15.1370  15.1488  15.1499  15.1499
    15.1537  15.1585  15.1585  15.1661  15.1742  15.1786  15.1786  15.1907
    15.1907  15.1931  15.2038  15.2038  15.2055  15.2786  15.2786  15.2810
    15.3697  15.3697  15.3802  15.3802  15.4057  15.4167  15.4170  15.4175
    15.4175  15.4261  15.4262  15.4262  15.4727  15.4900  15.4901  15.4930
    15.5047  15.5048  15.5103  15.5103  15.5110  15.5134  15.5134  15.5171
    15.5539  15.5540  15.5567  15.5568  15.6400  15.6400  15.6416  15.6466
    15.6587  15.6587  15.7037  15.7037  15.7123  15.7202  15.7202  15.7246
    15.8258  15.8469  15.8470  15.8814  15.8815  15.8927  15.8927  15.9042
    15.9048  15.9048  15.9105  15.9138  15.9280  15.9280  15.9289  15.9291
    15.9291  15.9303  15.9332  15.9332  15.9381  15.9381  15.9423  15.9472
    15.9592  15.9592  15.9622  16.0078  16.0079  16.0081  16.0160  16.0205
    16.0206  16.0255  16.0623  16.0624  16.0643  16.0679  16.0680  16.1049
    16.1062  16.1063  16.2056  16.2058  16.2211  16.3302  16.3345  16.3345
    16.3348  16.3348  16.3358  16.3603  16.3603  16.3786  16.3787  16.3815
    16.3832  16.4616  16.4689  16.4689  16.4710  16.4710  16.4798  16.5410
    16.5429  16.5430  16.5454  16.5455  16.5583  16.5584  16.5616  16.5776
    16.6106  16.6107  16.6158  16.6421  16.6460  16.6460  16.6471  16.6472
    16.6630  16.6745  16.6746  16.6780  16.6781  16.6836  16.6836  16.6961
    16.7504  16.7693  16.8255  16.8258  16.9192  16.9196  17.0432  17.0552
    17.0554  17.0652  17.0654  17.0794  17.2770  17.2869  17.3024  17.3053
    17.3054  17.3073  17.3157  17.3158  17.5534  17.6502  17.8469  17.8648
    17.8649  17.9928  17.9979  18.0093  18.0093  18.0146  18.0146  18.0399
    18.1242  18.1671  18.1671  18.1825  18.1825  18.2037  18.3235  18.3271
    18.3272  18.4041  18.4059  18.4524  18.4668  18.4669  18.4889  18.4890
    18.6564  18.6567  18.7738  18.7869  18.7873  18.9625  19.0068  19.0070
    19.0204  19.0349  19.0351  19.2462  19.2652  19.2722  19.2726  19.2863
    19.2975  19.3180  19.3734  19.3734  19.4123  19.4123  19.4267  19.4344
    19.4345  19.4359  19.4360  19.4417  19.4417  19.4458  19.4478  19.4527
    19.4768  19.5445  19.5840  19.5843  20.3262  20.3266  20.4644  20.4645
    20.4664  20.4665  20.7999  20.8907  20.8909  21.5725  21.5728  21.5902

     occupation numbers 
     1.0000   1.0000   1.0000   1.0000   1.0000   1.0000   1.0000   1.0000
     1.0000   1.0000   1.0000   1.0000   1.0000   1.0000   1.0000   1.0000
     1.0000   1.0000   1.0000   1.0000   1.0000   1.0000   1.0000   1.0000
     1.0000   1.0000   1.0000   1.0000   1.0000   1.0000   1.0000   1.0000
     1.0000   1.0000   1.0000   1.0000   1.0000   1.0000   1.0000   1.0000
     1.0000   1.0000   1.0000   1.0000   1.0000   1.0000   1.0000   1.0000
     1.0000   1.0000   1.0000   1.0000   1.0000   1.0000   1.0000   1.0000
     1.0000   1.0000   1.0000   1.0000   1.0000   1.0000   1.0000   1.0000
     1.0000   1.0000   1.0000   1.0000   1.0000   1.0000   1.0000   1.0000
     1.0000   1.0000   1.0000   1.0000   1.0000   1.0000   1.0000   1.0000
     1.0000   1.0000   1.0000   1.0000   1.0000   1.0000   1.0000   1.0000
     1.0000   1.0000   1.0000   1.0000   1.0000   1.0000   1.0000   1.0000
     1.0000   1.0000   1.0000   1.0000   1.0000   1.0000   1.0000   1.0000
     1.0000   1.0000   1.0000   1.0000   1.0000   1.0000   1.0000   1.0000
     1.0000   1.0000   1.0000   1.0000   1.0000   1.0000   1.0000   1.0000
     1.0000   1.0000   1.0000   1.0000   1.0000   1.0000   1.0000   1.0000
     1.0000   1.0000   1.0000   1.0000   1.0000   1.0000   1.0000   1.0000
     1.0000   1.0000   1.0000   1.0000   1.0000   1.0000   1.0000   1.0000
     1.0000   1.0000   1.0000   1.0000   1.0000   1.0000   1.0000   1.0000
     1.0000   1.0000   1.0000   1.0000   1.0000   1.0000   1.0000   1.0000
     1.0000   1.0000   1.0000   1.0000   1.0000   1.0000   1.0000   1.0000
     1.0000   1.0000   1.0000   1.0000   1.0000   1.0000   1.0000   1.0000
     1.0000   1.0000   1.0000   1.0000   1.0000   1.0000   1.0000   1.0000
     1.0000   1.0000   1.0000   1.0000   1.0000   1.0000   1.0000   1.0000
     1.0000   1.0000   1.0000   1.0000   1.0000   1.0000   1.0000   1.0000
     1.0000   1.0000   1.0000   1.0000   1.0000   1.0000   1.0000   1.0000
     1.0000   1.0000   1.0000   1.0000   1.0000   1.0000   1.0000   1.0000
     1.0000   1.0000   1.0000   1.0000   1.0000   1.0000   1.0000   1.0000
     1.0000   1.0000   1.0000   1.0000   1.0000   1.0000   1.0000   1.0000
     1.0000   1.0000   1.0000   1.0000   1.0000   1.0000   1.0000   1.0000
     1.0000   1.0000   1.0000   1.0000   1.0000   1.0000   1.0000   1.0000
     1.0000   1.0000   1.0000   1.0000   1.0000   1.0000   1.0000   1.0000
     1.0000   1.0000   1.0000   1.0000   1.0000   1.0000   1.0000   1.0000
     1.0000   1.0000   1.0000   1.0000   1.0000   1.0000   1.0000   1.0000
     1.0000   1.0000   1.0000   1.0000   1.0000   1.0000   1.0000   1.0000
     1.0000   1.0000   1.0000   1.0000   1.0000   1.0000   1.0000   1.0000
     1.0000   1.0000   1.0000   1.0000   1.0000   1.0000   1.0000   1.0000
     1.0000   1.0000   1.0000   1.0000   1.0000   1.0000   1.0000   1.0000
     1.0000   1.0000   1.0000   1.0000   1.0000   1.0000   1.0000   1.0000
     1.0000   1.0000   1.0000   1.0000   1.0000   1.0000   1.0000   1.0000
     1.0000   1.0000   1.0000   1.0000   1.0000   1.0000   1.0000   1.0000
     1.0000   1.0000   1.0000   1.0000   1.0000   1.0000   1.0000   1.0000
     1.0000   1.0000   1.0000   1.0000   1.0000   1.0000   1.0000   1.0000
     1.0000   1.0000   1.0000   1.0000   1.0000   1.0000   1.0000   1.0000
     1.0000   1.0000   1.0000   1.0000   1.0000   1.0000   1.0000   1.0000
     1.0000   1.0000   1.0000   1.0000   1.0000   1.0000   1.0000   1.0000
     1.0000   1.0000   1.0000   1.0000   1.0000   1.0000   1.0000   1.0000
     1.0000   1.0000   1.0000   1.0000   1.0000   1.0000   1.0000   1.0000
     1.0000   1.0000   1.0000   1.0000   1.0000   1.0000   1.0000   1.0000
     1.0000   1.0000   1.0000   1.0000   1.0000   1.0000   1.0000   1.0000
     1.0000   1.0000   1.0000   1.0000   1.0000   1.0000   1.0000   1.0000
     1.0000   1.0000   1.0000   1.0000   1.0000   1.0000   1.0000   1.0000
     1.0000   1.0000   1.0000   1.0000   1.0000   1.0000   1.0000   1.0000
     1.0000   1.0000   1.0000   1.0000   1.0000   1.0000   1.0000   1.0000
     1.0000   1.0000   1.0000   1.0000   1.0000   1.0000   1.0000   1.0000
     1.0000   1.0000   1.0000   1.0000   1.0000   1.0000   1.0000   1.0000
     1.0000   1.0000   1.0000   1.0000   1.0000   1.0000   1.0000   1.0000
     1.0000   1.0000   1.0000   1.0000   1.0000   1.0000   1.0000   1.0000
     1.0000   1.0000   1.0000   1.0000   1.0000   1.0000   1.0000   1.0000
     1.0000   1.0000   1.0000   1.0000   1.0000   1.0000   1.0000   1.0000
     1.0000   1.0000   1.0000   1.0000   1.0000   1.0000   1.0000   1.0000
     1.0000   1.0000   1.0000   1.0000   1.0000   1.0000   1.0000   1.0000
     1.0000   1.0000   1.0000   1.0000   1.0000   1.0000   1.0000   1.0000
     1.0000   1.0000   1.0000   1.0000   1.0000   1.0000   1.0000   1.0000
     1.0000   1.0000   1.0000   1.0000   1.0000   1.0000   1.0000   1.0000
     1.0000   1.0000   1.0000   1.0000   1.0000   1.0000   1.0000   1.0000
     1.0000   1.0000   1.0000   1.0000   1.0000   1.0000   1.0000   1.0000
     1.0000   1.0000   1.0000   1.0000   1.0000   1.0000   1.0000   1.0000
     1.0000   1.0000   1.0000   1.0000   1.0000   1.0000   1.0000   1.0000
     1.0000   1.0000   1.0000   1.0000   1.0000   1.0000   1.0000   1.0000
     1.0000   1.0000   1.0000   1.0000   1.0000   1.0000   1.0000   1.0000
     1.0000   1.0000   1.0000   1.0000   1.0000   1.0000   1.0000   1.0000
     1.0000   1.0000   1.0000   1.0000   1.0000   1.0000   1.0000   1.0000
     1.0000   1.0000   1.0000   1.0000   1.0000   1.0000   1.0000   1.0000
     1.0000   1.0000   1.0000   1.0000   1.0000   1.0000   1.0000   1.0000
     1.0000   1.0000   1.0000   1.0000   1.0000   1.0000   1.0000   1.0000
     1.0000   1.0000   1.0000   1.0000   1.0000   1.0000   1.0000   1.0000
     1.0000   1.0000   1.0000   1.0000   1.0000   1.0000   1.0000   1.0000
     1.0000   1.0000   1.0000   1.0000   1.0000   1.0000   1.0000   1.0000
     1.0000   1.0000   1.0000   1.0000   1.0000   1.0000   1.0000   1.0000
     1.0000   1.0000   1.0000   1.0000   1.0000   1.0000   1.0000   1.0000
     1.0000   1.0000   1.0000   1.0000   1.0000   1.0000   1.0000   1.0000
     1.0000   1.0000   1.0000   1.0000   1.0000   1.0000   1.0000   1.0000
     1.0000   1.0000   1.0000   1.0000   1.0000   1.0000   1.0000   1.0000
     1.0000   0.9999   0.9999   0.9999   0.9999   0.9999   0.9999   0.9997
     0.9997   0.9997   0.9997   0.9997   0.9996   0.9996   0.9996   0.9995
     0.9991   0.9991   0.9990   0.9984   0.9983   0.9983   0.9983   0.9983
     0.9978   0.9973   0.9973   0.9971   0.9971   0.9969   0.9969   0.9962
     0.9915   0.9890   0.9771   0.9770   0.9344   0.9342   0.8066   0.7890
     0.7886   0.7737   0.7733   0.7508   0.3632   0.3441   0.3151   0.3097
     0.3095   0.3060   0.2909   0.2907   0.0370   0.0110   0.0005   0.0003
     0.0003   0.0000   0.0000   0.0000   0.0000   0.0000   0.0000   0.0000
     0.0000   0.0000   0.0000   0.0000   0.0000   0.0000   0.0000   0.0000
     0.0000   0.0000   0.0000   0.0000   0.0000   0.0000   0.0000   0.0000
     0.0000   0.0000   0.0000   0.0000   0.0000   0.0000   0.0000   0.0000
     0.0000   0.0000   0.0000   0.0000   0.0000   0.0000   0.0000   0.0000
     0.0000   0.0000   0.0000   0.0000   0.0000   0.0000   0.0000   0.0000
     0.0000   0.0000   0.0000   0.0000   0.0000   0.0000   0.0000   0.0000
     0.0000   0.0000   0.0000   0.0000   0.0000   0.0000   0.0000   0.0000
     0.0000   0.0000   0.0000   0.0000   0.0000   0.0000   0.0000   0.0000

          k = 0.0000 0.2887 0.0000 (100583 PWs)   bands (ev):

   -71.2187 -71.2182 -71.2181 -71.2132 -71.2132 -71.2131 -71.1728 -71.1728
   -71.1720 -71.1719 -71.1718 -71.1718 -71.1717 -71.1717 -71.1717 -71.1716
   -71.1715 -71.1715 -71.1699 -71.1698 -71.1697 -71.1696 -71.1687 -71.1687
   -71.1686 -71.1685 -71.1685 -71.1685 -71.1684 -71.1683 -71.1282 -71.1280
   -71.1277 -71.1277 -71.1275 -71.1275 -70.0223 -70.0223 -70.0222 -70.0222
   -70.0221 -70.0220 -70.0105 -70.0104 -70.0103 -70.0103 -70.0103 -70.0102
   -70.0099 -70.0099 -70.0098 -70.0098 -70.0096 -70.0095 -70.0074 -70.0074
   -70.0072 -69.9988 -69.9988 -69.9986 -69.9818 -69.9816 -69.9712 -69.9711
   -69.9708 -69.9706 -69.9648 -69.9648 -69.9643 -69.8969 -69.8899 -69.8898
   -37.3523 -37.3518 -37.3515 -37.3455 -37.3455 -37.3454 -37.3084 -37.3081
   -37.3080 -37.3073 -37.3068 -37.3057 -37.3055 -37.3050 -37.3050 -37.3042
   -37.3041 -37.3038 -37.3037 -37.3036 -37.3024 -37.3023 -37.3016 -37.3015
   -37.2988 -37.2988 -37.2963 -37.2962 -37.2958 -37.2957 -37.2704 -37.2694
   -37.2691 -37.2683 -37.2680 -37.2669 -37.2641 -37.2636 -37.2635 -37.2596
   -37.2595 -37.2571 -37.2448 -37.2402 -37.2402 -37.2305 -37.2301 -37.2278
   -37.2178 -37.2174 -37.2172 -37.2167 -37.2163 -37.2157 -37.2143 -37.2137
   -37.2122 -37.2119 -37.2119 -37.2116 -37.2115 -37.2115 -37.2112 -37.2110
   -37.2106 -37.2103 -37.2101 -37.2100 -37.2069 -37.2065 -37.2056 -37.2051
   -37.2049 -37.2043 -37.2035 -37.2030 -37.2027 -37.2027 -37.2024 -37.2009
   -37.2005 -37.1999 -37.1970 -37.1968 -37.1966 -37.1963 -37.1961 -37.1960
   -37.1949 -37.1945 -37.1940 -37.1936 -37.1921 -37.1919 -37.1918 -37.1915
   -37.1796 -37.1788 -37.1781 -37.1778 -37.1777 -37.1774 -37.1372 -37.1371
   -37.1367 -37.1366 -37.1360 -37.1358 -36.3120 -36.3119 -36.3117 -36.3115
   -36.3112 -36.3110 -36.2932 -36.2931 -36.2928 -36.2758 -36.2751 -36.2526
   -36.2223 -36.2221 -36.2219 -36.2216 -36.2213 -36.2213 -36.2212 -36.2209
   -36.2208 -36.2207 -36.2207 -36.2205 -36.2144 -36.2144 -36.2141 -36.1924
   -36.1920 -36.1920 -36.1916 -36.1833 -36.1832 -36.1828 -36.1822 -36.1821
   -36.0725 -36.0720 -36.0718 -36.0718 -36.0718 -36.0714 -36.0707 -36.0706
   -36.0706 -36.0705 -36.0701 -36.0701 -36.0524 -36.0522 -36.0521 -36.0423
   -36.0421 -36.0419 -36.0403 -36.0397 -36.0396 -36.0395 -36.0393 -36.0391
   -36.0386 -36.0369 -36.0365 -36.0347 -36.0344 -36.0343 -36.0262 -36.0259
   -36.0258 -36.0257 -36.0253 -36.0247 -36.0244 -36.0234 -36.0232 -36.0227
   -36.0226 -36.0223 -36.0221 -36.0220 -36.0219 -36.0215 -36.0193 -36.0192
   -36.0189 -36.0133 -36.0133 -36.0130 -36.0097 -36.0094 -36.0091 -36.0041
   -35.9999 -35.9966 -35.9962 -35.9918 -35.9914 -35.9881 -35.9878 -35.9751
   -35.9750 -35.9746 -35.9275 -35.9200 -35.9199 -35.8929 -35.8928 -35.8721
     3.2685   3.7522   4.0451   4.2074   4.3690   4.4184   4.5589   4.6758
     4.7748   4.8487   4.8708   4.9833   5.0121   5.0659   5.0707   5.2353
     5.2962   5.3370   5.3454   5.3821   5.3885   5.3951   5.4434   5.4708
     5.4786   5.6943   5.6960   5.7727   5.7783   5.7833   5.7949   5.8082
     5.8707   5.8866   6.1459   6.1659   8.3251   9.5798   9.6418   9.6495
     9.9959  10.0305  10.0427  10.1113  10.1286  10.1351  10.2446  10.3712
    10.4009  10.4340  10.4424  10.4598  10.4618  10.4633  10.4741  10.4748
    10.4784  10.4831  10.5817  10.6692  10.6705  10.6786  10.7223  10.7894
    10.8172  10.8183  10.8631  10.8657  11.0911  11.1168  11.1302  11.1380
    11.1536  11.1866  11.2042  11.2283  11.2310  11.3157  11.3482  11.3638
    11.3672  11.6877  11.6882  11.7720  11.8058  11.8132  11.8163  11.8168
    11.8201  11.8583  11.8589  11.8858  11.9059  11.9972  12.0135  12.0181
    12.0216  12.0278  12.0488  12.0533  12.0612  12.0641  12.1808  12.2703
    12.2766  12.2982  12.3109  12.3114  12.3194  12.3457  12.3834  12.3902
    12.3922  12.4087  12.4270  12.4586  12.4687  12.4800  12.4872  12.4889
    12.4995  12.5029  12.5129  12.5143  12.5226  12.5246  12.6827  12.6888
    12.7650  12.7729  12.7791  12.7837  12.8050  12.8173  12.8175  12.8381
    12.8936  12.9670  12.9839  12.9979  13.0105  13.1699  13.1807  13.3097
    13.3559  13.5110  13.5222  13.5443  13.5532  13.5551  13.5893  13.6627
    13.6856  13.6960  13.7169  13.7371  13.7432  13.7484  13.7559  13.7692
    13.7753  13.7826  13.7937  13.8068  13.8159  13.8203  13.8270  13.8278
    13.8318  13.8411  13.8460  13.8511  13.8535  13.8750  13.8855  13.9095
    13.9205  13.9375  13.9497  13.9523  13.9623  13.9646  13.9850  13.9872
    13.9910  13.9934  14.0031  14.0079  14.0119  14.0194  14.0271  14.0299
    14.0314  14.0351  14.0399  14.0419  14.0684  14.0883  14.1100  14.1214
    14.1437  14.1496  14.1539  14.1559  14.1718  14.1798  14.2113  14.2140
    14.2190  14.2223  14.2314  14.2448  14.2454  14.2547  14.2583  14.2901
    14.3001  14.3106  14.3148  14.3290  14.3424  14.3573  14.3676  14.3734
    14.5199  14.5594  14.6925  14.7010  14.7010  14.7082  14.7099  14.7158
    14.7502  14.7576  14.7823  14.7881  14.8095  14.9129  14.9133  14.9138
    14.9161  14.9188  14.9240  14.9243  14.9430  14.9572  14.9591  14.9595
    14.9659  14.9747  14.9784  15.0176  15.0191  15.0193  15.0239  15.0286
    15.0333  15.0419  15.0425  15.0551  15.0720  15.0762  15.1206  15.1296
    15.1400  15.1403  15.1462  15.1462  15.1813  15.1970  15.1976  15.2029
    15.2080  15.2153  15.2174  15.2252  15.2291  15.2349  15.2351  15.2410
    15.2495  15.2519  15.2525  15.2633  15.2851  15.3046  15.3053  15.3078
    15.3130  15.3198  15.3245  15.3277  15.3362  15.3429  15.3526  15.3591
    15.3656  15.3764  15.3792  15.3812  15.3924  15.4038  15.4057  15.4108
    15.4126  15.4193  15.4268  15.4707  15.4824  15.4989  15.5276  15.5631
    15.5708  15.6199  15.6330  15.6396  15.6437  15.6473  15.6493  15.6607
    15.7001  15.7192  15.7306  15.7354  15.7373  15.7436  15.7445  15.7470
    15.7541  15.7575  15.7588  15.7736  15.8087  15.8105  15.8283  15.8628
    15.8896  15.8963  15.9129  15.9192  15.9275  15.9310  15.9351  15.9572
    15.9600  15.9611  15.9666  15.9715  15.9751  15.9999  16.0126  16.0291
    16.0383  16.0455  16.0474  16.0650  16.0698  16.0819  16.0844  16.0896
    16.0931  16.1021  16.1180  16.1273  16.1356  16.1357  16.1469  16.1524
    16.1691  16.1800  16.1920  16.1929  16.2271  16.2388  16.2887  16.3038
    16.3061  16.3220  16.3220  16.3288  16.3427  16.3871  16.3903  16.4098
    16.4108  16.4206  16.4301  16.4358  16.4742  16.4884  16.5074  16.5257
    16.5273  16.5278  16.5321  16.5336  16.5366  16.5404  16.5510  16.5709
    16.5991  16.6237  16.6397  16.6435  16.6463  16.6479  16.6596  16.6697
    16.6779  16.7078  16.7308  16.7344  16.7465  16.7600  16.7659  16.7730
    16.7773  16.7815  16.7906  16.7936  16.7990  16.8050  16.8219  16.8441
    16.8457  16.8527  16.9062  16.9149  16.9211  16.9216  16.9376  16.9394
    16.9435  17.3766  17.4666  17.4694  17.6203  17.6349  18.0317  18.0341
    18.0358  18.0662  18.0721  18.0735  18.0750  18.0786  18.1824  18.1941
    18.2029  18.2063  18.2159  18.2174  18.2797  18.3196  18.3812  18.3827
    18.4270  18.4421  18.4465  18.4503  18.4609  18.4700  18.4795  18.4882
    18.5875  18.6028  18.9173  18.9292  18.9337  18.9365  18.9639  18.9754
    18.9823  19.0330  19.0760  19.0765  19.1352  19.2265  19.2364  19.2667
    19.3067  19.3207  19.3284  19.3358  19.3518  19.4092  19.4261  19.4643
    19.5036  19.5042  19.5170  19.5301  19.5328  19.6365  19.6373  19.6478
    19.6486  20.2158  20.2451  20.3210  20.4275  20.4969  20.5299  20.7101
    20.8297  21.0446  21.0632  21.0681  21.0885  21.0933  21.1630  21.1717

     occupation numbers 
     1.0000   1.0000   1.0000   1.0000   1.0000   1.0000   1.0000   1.0000
     1.0000   1.0000   1.0000   1.0000   1.0000   1.0000   1.0000   1.0000
     1.0000   1.0000   1.0000   1.0000   1.0000   1.0000   1.0000   1.0000
     1.0000   1.0000   1.0000   1.0000   1.0000   1.0000   1.0000   1.0000
     1.0000   1.0000   1.0000   1.0000   1.0000   1.0000   1.0000   1.0000
     1.0000   1.0000   1.0000   1.0000   1.0000   1.0000   1.0000   1.0000
     1.0000   1.0000   1.0000   1.0000   1.0000   1.0000   1.0000   1.0000
     1.0000   1.0000   1.0000   1.0000   1.0000   1.0000   1.0000   1.0000
     1.0000   1.0000   1.0000   1.0000   1.0000   1.0000   1.0000   1.0000
     1.0000   1.0000   1.0000   1.0000   1.0000   1.0000   1.0000   1.0000
     1.0000   1.0000   1.0000   1.0000   1.0000   1.0000   1.0000   1.0000
     1.0000   1.0000   1.0000   1.0000   1.0000   1.0000   1.0000   1.0000
     1.0000   1.0000   1.0000   1.0000   1.0000   1.0000   1.0000   1.0000
     1.0000   1.0000   1.0000   1.0000   1.0000   1.0000   1.0000   1.0000
     1.0000   1.0000   1.0000   1.0000   1.0000   1.0000   1.0000   1.0000
     1.0000   1.0000   1.0000   1.0000   1.0000   1.0000   1.0000   1.0000
     1.0000   1.0000   1.0000   1.0000   1.0000   1.0000   1.0000   1.0000
     1.0000   1.0000   1.0000   1.0000   1.0000   1.0000   1.0000   1.0000
     1.0000   1.0000   1.0000   1.0000   1.0000   1.0000   1.0000   1.0000
     1.0000   1.0000   1.0000   1.0000   1.0000   1.0000   1.0000   1.0000
     1.0000   1.0000   1.0000   1.0000   1.0000   1.0000   1.0000   1.0000
     1.0000   1.0000   1.0000   1.0000   1.0000   1.0000   1.0000   1.0000
     1.0000   1.0000   1.0000   1.0000   1.0000   1.0000   1.0000   1.0000
     1.0000   1.0000   1.0000   1.0000   1.0000   1.0000   1.0000   1.0000
     1.0000   1.0000   1.0000   1.0000   1.0000   1.0000   1.0000   1.0000
     1.0000   1.0000   1.0000   1.0000   1.0000   1.0000   1.0000   1.0000
     1.0000   1.0000   1.0000   1.0000   1.0000   1.0000   1.0000   1.0000
     1.0000   1.0000   1.0000   1.0000   1.0000   1.0000   1.0000   1.0000
     1.0000   1.0000   1.0000   1.0000   1.0000   1.0000   1.0000   1.0000
     1.0000   1.0000   1.0000   1.0000   1.0000   1.0000   1.0000   1.0000
     1.0000   1.0000   1.0000   1.0000   1.0000   1.0000   1.0000   1.0000
     1.0000   1.0000   1.0000   1.0000   1.0000   1.0000   1.0000   1.0000
     1.0000   1.0000   1.0000   1.0000   1.0000   1.0000   1.0000   1.0000
     1.0000   1.0000   1.0000   1.0000   1.0000   1.0000   1.0000   1.0000
     1.0000   1.0000   1.0000   1.0000   1.0000   1.0000   1.0000   1.0000
     1.0000   1.0000   1.0000   1.0000   1.0000   1.0000   1.0000   1.0000
     1.0000   1.0000   1.0000   1.0000   1.0000   1.0000   1.0000   1.0000
     1.0000   1.0000   1.0000   1.0000   1.0000   1.0000   1.0000   1.0000
     1.0000   1.0000   1.0000   1.0000   1.0000   1.0000   1.0000   1.0000
     1.0000   1.0000   1.0000   1.0000   1.0000   1.0000   1.0000   1.0000
     1.0000   1.0000   1.0000   1.0000   1.0000   1.0000   1.0000   1.0000
     1.0000   1.0000   1.0000   1.0000   1.0000   1.0000   1.0000   1.0000
     1.0000   1.0000   1.0000   1.0000   1.0000   1.0000   1.0000   1.0000
     1.0000   1.0000   1.0000   1.0000   1.0000   1.0000   1.0000   1.0000
     1.0000   1.0000   1.0000   1.0000   1.0000   1.0000   1.0000   1.0000
     1.0000   1.0000   1.0000   1.0000   1.0000   1.0000   1.0000   1.0000
     1.0000   1.0000   1.0000   1.0000   1.0000   1.0000   1.0000   1.0000
     1.0000   1.0000   1.0000   1.0000   1.0000   1.0000   1.0000   1.0000
     1.0000   1.0000   1.0000   1.0000   1.0000   1.0000   1.0000   1.0000
     1.0000   1.0000   1.0000   1.0000   1.0000   1.0000   1.0000   1.0000
     1.0000   1.0000   1.0000   1.0000   1.0000   1.0000   1.0000   1.0000
     1.0000   1.0000   1.0000   1.0000   1.0000   1.0000   1.0000   1.0000
     1.0000   1.0000   1.0000   1.0000   1.0000   1.0000   1.0000   1.0000
     1.0000   1.0000   1.0000   1.0000   1.0000   1.0000   1.0000   1.0000
     1.0000   1.0000   1.0000   1.0000   1.0000   1.0000   1.0000   1.0000
     1.0000   1.0000   1.0000   1.0000   1.0000   1.0000   1.0000   1.0000
     1.0000   1.0000   1.0000   1.0000   1.0000   1.0000   1.0000   1.0000
     1.0000   1.0000   1.0000   1.0000   1.0000   1.0000   1.0000   1.0000
     1.0000   1.0000   1.0000   1.0000   1.0000   1.0000   1.0000   1.0000
     1.0000   1.0000   1.0000   1.0000   1.0000   1.0000   1.0000   1.0000
     1.0000   1.0000   1.0000   1.0000   1.0000   1.0000   1.0000   1.0000
     1.0000   1.0000   1.0000   1.0000   1.0000   1.0000   1.0000   1.0000
     1.0000   1.0000   1.0000   1.0000   1.0000   1.0000   1.0000   1.0000
     1.0000   1.0000   1.0000   1.0000   1.0000   1.0000   1.0000   1.0000
     1.0000   1.0000   1.0000   1.0000   1.0000   1.0000   1.0000   1.0000
     1.0000   1.0000   1.0000   1.0000   1.0000   1.0000   1.0000   1.0000
     1.0000   1.0000   1.0000   1.0000   1.0000   1.0000   1.0000   1.0000
     1.0000   1.0000   1.0000   1.0000   1.0000   1.0000   1.0000   1.0000
     1.0000   1.0000   1.0000   1.0000   1.0000   1.0000   1.0000   1.0000
     1.0000   1.0000   1.0000   1.0000   1.0000   1.0000   1.0000   1.0000
     1.0000   1.0000   1.0000   1.0000   1.0000   1.0000   1.0000   1.0000
     1.0000   1.0000   1.0000   1.0000   1.0000   1.0000   1.0000   1.0000
     1.0000   1.0000   1.0000   1.0000   1.0000   1.0000   1.0000   1.0000
     1.0000   1.0000   1.0000   1.0000   1.0000   1.0000   1.0000   1.0000
     1.0000   1.0000   1.0000   1.0000   1.0000   1.0000   1.0000   1.0000
     1.0000   1.0000   1.0000   1.0000   1.0000   1.0000   1.0000   1.0000
     1.0000   1.0000   1.0000   1.0000   1.0000   1.0000   1.0000   1.0000
     1.0000   1.0000   1.0000   1.0000   1.0000   1.0000   1.0000   1.0000
     1.0000   1.0000   1.0000   1.0000   1.0000   1.0000   1.0000   1.0000
     1.0000   1.0000   1.0000   1.0000   1.0000   1.0000   1.0000   1.0000
     1.0000   1.0000   1.0000   1.0000   1.0000   1.0000   1.0000   1.0000
     1.0000   1.0000   1.0000   1.0000   1.0000   1.0000   1.0000   1.0000
     1.0000   1.0000   1.0000   1.0000   1.0000   1.0000   1.0000   1.0000
     1.0000   1.0000   1.0000   1.0000   1.0000   1.0000   1.0000   1.0000
     1.0000   1.0000   1.0000   1.0000   0.9999   0.9999   0.9999   0.9998
     0.9998   0.9998   0.9998   0.9998   0.9998   0.9997   0.9997   0.9995
     0.9992   0.9988   0.9985   0.9984   0.9983   0.9982   0.9979   0.9975
     0.9971   0.9955   0.9936   0.9932   0.9920   0.9903   0.9895   0.9884
     0.9877   0.9870   0.9853   0.9847   0.9836   0.9823   0.9781   0.9713
     0.9708   0.9682   0.9427   0.9373   0.9332   0.9329   0.9213   0.9200
     0.9168   0.1928   0.0909   0.0886   0.0164   0.0136   0.0000   0.0000
     0.0000   0.0000   0.0000   0.0000   0.0000   0.0000   0.0000   0.0000
     0.0000   0.0000   0.0000   0.0000   0.0000   0.0000   0.0000   0.0000
     0.0000   0.0000   0.0000   0.0000   0.0000   0.0000   0.0000   0.0000
     0.0000   0.0000   0.0000   0.0000   0.0000   0.0000   0.0000   0.0000
     0.0000   0.0000   0.0000   0.0000   0.0000   0.0000   0.0000   0.0000
     0.0000   0.0000   0.0000   0.0000   0.0000   0.0000   0.0000   0.0000
     0.0000   0.0000   0.0000   0.0000   0.0000   0.0000   0.0000   0.0000
     0.0000   0.0000   0.0000   0.0000   0.0000   0.0000   0.0000   0.0000
     0.0000   0.0000   0.0000   0.0000   0.0000   0.0000   0.0000   0.0000

          k = 0.0000 0.2887 0.2850 (100631 PWs)   bands (ev):

   -71.2187 -71.2182 -71.2181 -71.2132 -71.2132 -71.2131 -71.1728 -71.1728
   -71.1720 -71.1719 -71.1718 -71.1718 -71.1717 -71.1717 -71.1717 -71.1716
   -71.1715 -71.1715 -71.1699 -71.1698 -71.1697 -71.1696 -71.1687 -71.1687
   -71.1686 -71.1686 -71.1685 -71.1685 -71.1684 -71.1683 -71.1282 -71.1280
   -71.1277 -71.1277 -71.1275 -71.1275 -70.0223 -70.0223 -70.0222 -70.0222
   -70.0221 -70.0220 -70.0105 -70.0104 -70.0103 -70.0103 -70.0103 -70.0102
   -70.0099 -70.0099 -70.0098 -70.0098 -70.0096 -70.0095 -70.0074 -70.0074
   -70.0072 -69.9988 -69.9988 -69.9986 -69.9818 -69.9816 -69.9712 -69.9711
   -69.9708 -69.9706 -69.9648 -69.9648 -69.9643 -69.8969 -69.8899 -69.8898
   -37.3523 -37.3518 -37.3515 -37.3456 -37.3455 -37.3454 -37.3083 -37.3081
   -37.3080 -37.3078 -37.3072 -37.3064 -37.3061 -37.3054 -37.3053 -37.3044
   -37.3041 -37.3040 -37.3031 -37.3028 -37.3010 -37.3009 -37.3006 -37.3005
   -37.2993 -37.2993 -37.2968 -37.2967 -37.2964 -37.2963 -37.2703 -37.2694
   -37.2691 -37.2682 -37.2679 -37.2669 -37.2641 -37.2637 -37.2636 -37.2596
   -37.2595 -37.2571 -37.2448 -37.2403 -37.2402 -37.2305 -37.2301 -37.2278
   -37.2179 -37.2174 -37.2172 -37.2167 -37.2163 -37.2158 -37.2143 -37.2137
   -37.2123 -37.2119 -37.2118 -37.2116 -37.2116 -37.2115 -37.2112 -37.2111
   -37.2106 -37.2103 -37.2101 -37.2100 -37.2069 -37.2065 -37.2056 -37.2051
   -37.2049 -37.2043 -37.2035 -37.2031 -37.2029 -37.2026 -37.2024 -37.2009
   -37.2007 -37.1998 -37.1970 -37.1968 -37.1966 -37.1963 -37.1961 -37.1960
   -37.1950 -37.1945 -37.1941 -37.1935 -37.1922 -37.1919 -37.1918 -37.1915
   -37.1796 -37.1788 -37.1781 -37.1778 -37.1777 -37.1774 -37.1372 -37.1371
   -37.1367 -37.1366 -37.1360 -37.1358 -36.3120 -36.3119 -36.3117 -36.3115
   -36.3112 -36.3110 -36.2932 -36.2931 -36.2928 -36.2758 -36.2752 -36.2526
   -36.2223 -36.2221 -36.2220 -36.2216 -36.2214 -36.2213 -36.2212 -36.2209
   -36.2208 -36.2207 -36.2207 -36.2205 -36.2144 -36.2144 -36.2141 -36.1924
   -36.1920 -36.1920 -36.1916 -36.1833 -36.1832 -36.1829 -36.1822 -36.1821
   -36.0725 -36.0720 -36.0718 -36.0718 -36.0718 -36.0714 -36.0707 -36.0706
   -36.0706 -36.0705 -36.0701 -36.0700 -36.0524 -36.0522 -36.0521 -36.0423
   -36.0421 -36.0419 -36.0403 -36.0397 -36.0396 -36.0395 -36.0393 -36.0391
   -36.0390 -36.0371 -36.0366 -36.0343 -36.0343 -36.0341 -36.0262 -36.0262
   -36.0258 -36.0257 -36.0253 -36.0249 -36.0246 -36.0232 -36.0231 -36.0229
   -36.0224 -36.0223 -36.0223 -36.0218 -36.0217 -36.0214 -36.0193 -36.0192
   -36.0189 -36.0134 -36.0133 -36.0131 -36.0097 -36.0094 -36.0091 -36.0041
   -35.9998 -35.9966 -35.9962 -35.9919 -35.9915 -35.9881 -35.9877 -35.9751
   -35.9750 -35.9746 -35.9275 -35.9200 -35.9199 -35.8929 -35.8928 -35.8721
     3.3330   3.7648   3.9983   4.1305   4.2696   4.4257   4.5865   4.6988
     4.7274   4.7332   4.8587   4.9040   5.0553   5.1229   5.2004   5.2453
     5.2951   5.3366   5.3516   5.3942   5.4075   5.4791   5.5622   5.5808
     5.5922   5.6113   5.6156   5.6272   5.6512   5.7270   5.8365   5.9066
     5.9092   5.9925   6.0323   6.2526   8.2277   9.6501   9.7051   9.7117
     9.7961   9.8682   9.9708  10.0202  10.0539  10.0671  10.0724  10.0828
    10.1091  10.2039  10.3082  10.3353  10.4363  10.5041  10.5089  10.5541
    10.5948  10.6060  10.6387  10.6436  10.6786  10.7396  10.8104  10.8382
    10.8542  10.8902  10.8941  10.9817  11.0925  11.1449  11.1897  11.2352
    11.2921  11.2987  11.4087  11.4208  11.4299  11.4430  11.4570  11.5251
    11.5600  11.5741  11.6519  11.6820  11.8142  11.8204  11.8644  11.8691
    11.9082  11.9595  11.9704  11.9940  12.0122  12.0322  12.0387  12.0579
    12.0724  12.0887  12.1022  12.1090  12.1128  12.1180  12.1229  12.1702
    12.1946  12.2518  12.2713  12.2744  12.2809  12.2849  12.2956  12.3009
    12.3794  12.3940  12.3993  12.4099  12.4122  12.4165  12.4227  12.4284
    12.4767  12.5346  12.5549  12.5669  12.5957  12.6038  12.6168  12.6430
    12.6551  12.6560  12.6742  12.7256  12.7383  12.7907  12.8175  12.8310
    12.8419  12.9353  12.9385  12.9530  12.9620  13.1547  13.1653  13.2373
    13.4109  13.5065  13.5287  13.5748  13.5842  13.5881  13.6194  13.6359
    13.6794  13.7058  13.7106  13.7190  13.7350  13.7458  13.7645  13.7681
    13.7749  13.7817  13.7858  13.7927  13.7950  13.8040  13.8132  13.8377
    13.8433  13.8460  13.8497  13.8535  13.8681  13.8733  13.8870  13.8911
    13.9007  13.9290  13.9338  13.9389  13.9446  13.9518  13.9589  13.9606
    13.9667  13.9716  13.9783  13.9948  13.9990  14.0041  14.0140  14.0226
    14.0281  14.0345  14.0511  14.0567  14.0774  14.0897  14.0919  14.1209
    14.1263  14.1315  14.1473  14.1542  14.1630  14.1731  14.1765  14.1798
    14.1885  14.1946  14.2122  14.2258  14.2436  14.2949  14.3001  14.3058
    14.3092  14.3223  14.3242  14.3583  14.3684  14.3732  14.4384  14.4685
    14.5428  14.6017  14.6042  14.6120  14.6193  14.7368  14.7448  14.7592
    14.7733  14.8627  14.8639  14.8679  14.8711  14.8715  14.8811  14.8885
    14.9400  14.9423  14.9491  14.9714  14.9743  14.9813  14.9823  14.9873
    14.9939  14.9960  14.9997  15.0078  15.0246  15.0263  15.0281  15.0316
    15.0352  15.0382  15.0390  15.0509  15.0639  15.0780  15.0821  15.1037
    15.1116  15.1152  15.1165  15.1406  15.1461  15.1487  15.1522  15.1567
    15.1613  15.1686  15.1741  15.1844  15.1938  15.1981  15.2095  15.2441
    15.2539  15.2569  15.2587  15.2621  15.2664  15.2711  15.2912  15.2959
    15.2967  15.3001  15.3206  15.3322  15.3410  15.3446  15.3600  15.3679
    15.3956  15.4044  15.4138  15.4201  15.4263  15.4414  15.4463  15.4601
    15.4840  15.4966  15.4973  15.5039  15.5085  15.5145  15.5284  15.5613
    15.5662  15.5742  15.6026  15.6101  15.6416  15.6817  15.6884  15.6920
    15.6997  15.7045  15.7128  15.7289  15.7315  15.7425  15.7468  15.7481
    15.7558  15.7720  15.7786  15.8148  15.8214  15.8326  15.8375  15.8558
    15.8572  15.8891  15.8913  15.9003  15.9138  15.9200  15.9342  15.9387
    15.9567  15.9611  15.9769  15.9816  15.9858  15.9930  15.9967  15.9982
    16.0043  16.0055  16.0161  16.0183  16.0340  16.0399  16.0425  16.0442
    16.0510  16.0605  16.0908  16.1070  16.1172  16.1243  16.1313  16.1371
    16.1503  16.1630  16.1705  16.1751  16.1880  16.2432  16.2541  16.2867
    16.3130  16.3399  16.3511  16.3640  16.3683  16.3720  16.3778  16.4046
    16.4233  16.4310  16.4350  16.4406  16.4450  16.4744  16.4976  16.5112
    16.5364  16.5371  16.5429  16.5442  16.5456  16.5558  16.5616  16.5690
    16.5710  16.5761  16.5889  16.5909  16.6246  16.6477  16.6613  16.6783
    16.6832  16.7022  16.7165  16.7191  16.7328  16.7444  16.7477  16.7600
    16.7633  16.7764  16.8002  16.8291  16.8396  16.8492  16.8548  16.9026
    16.9401  16.9618  16.9747  16.9805  16.9896  16.9974  17.0835  17.1554
    17.1591  17.2222  17.3881  17.5155  17.6150  17.7447  17.8729  17.9018
    17.9441  17.9663  17.9737  17.9780  17.9812  18.0684  18.0756  18.0872
    18.1098  18.2221  18.2359  18.2411  18.2567  18.3199  18.3290  18.3492
    18.3845  18.4911  18.5490  18.5634  18.6123  18.6513  18.6593  18.6740
    18.6933  18.7240  18.8206  18.8300  18.8665  18.8880  18.8905  18.9012
    18.9177  18.9207  18.9982  19.0297  19.0542  19.0784  19.0938  19.2320
    19.2357  19.2461  19.2866  19.3289  19.3568  19.3695  19.4005  19.4063
    19.4145  19.5086  19.5776  19.5991  19.6101  19.7543  19.7615  19.7808
    19.9269  19.9484  19.9688  19.9871  20.0017  20.0911  20.4221  20.5004
    20.5882  20.7004  20.8031  20.8455  21.2082  21.2603  21.2964  21.3312

     occupation numbers 
     1.0000   1.0000   1.0000   1.0000   1.0000   1.0000   1.0000   1.0000
     1.0000   1.0000   1.0000   1.0000   1.0000   1.0000   1.0000   1.0000
     1.0000   1.0000   1.0000   1.0000   1.0000   1.0000   1.0000   1.0000
     1.0000   1.0000   1.0000   1.0000   1.0000   1.0000   1.0000   1.0000
     1.0000   1.0000   1.0000   1.0000   1.0000   1.0000   1.0000   1.0000
     1.0000   1.0000   1.0000   1.0000   1.0000   1.0000   1.0000   1.0000
     1.0000   1.0000   1.0000   1.0000   1.0000   1.0000   1.0000   1.0000
     1.0000   1.0000   1.0000   1.0000   1.0000   1.0000   1.0000   1.0000
     1.0000   1.0000   1.0000   1.0000   1.0000   1.0000   1.0000   1.0000
     1.0000   1.0000   1.0000   1.0000   1.0000   1.0000   1.0000   1.0000
     1.0000   1.0000   1.0000   1.0000   1.0000   1.0000   1.0000   1.0000
     1.0000   1.0000   1.0000   1.0000   1.0000   1.0000   1.0000   1.0000
     1.0000   1.0000   1.0000   1.0000   1.0000   1.0000   1.0000   1.0000
     1.0000   1.0000   1.0000   1.0000   1.0000   1.0000   1.0000   1.0000
     1.0000   1.0000   1.0000   1.0000   1.0000   1.0000   1.0000   1.0000
     1.0000   1.0000   1.0000   1.0000   1.0000   1.0000   1.0000   1.0000
     1.0000   1.0000   1.0000   1.0000   1.0000   1.0000   1.0000   1.0000
     1.0000   1.0000   1.0000   1.0000   1.0000   1.0000   1.0000   1.0000
     1.0000   1.0000   1.0000   1.0000   1.0000   1.0000   1.0000   1.0000
     1.0000   1.0000   1.0000   1.0000   1.0000   1.0000   1.0000   1.0000
     1.0000   1.0000   1.0000   1.0000   1.0000   1.0000   1.0000   1.0000
     1.0000   1.0000   1.0000   1.0000   1.0000   1.0000   1.0000   1.0000
     1.0000   1.0000   1.0000   1.0000   1.0000   1.0000   1.0000   1.0000
     1.0000   1.0000   1.0000   1.0000   1.0000   1.0000   1.0000   1.0000
     1.0000   1.0000   1.0000   1.0000   1.0000   1.0000   1.0000   1.0000
     1.0000   1.0000   1.0000   1.0000   1.0000   1.0000   1.0000   1.0000
     1.0000   1.0000   1.0000   1.0000   1.0000   1.0000   1.0000   1.0000
     1.0000   1.0000   1.0000   1.0000   1.0000   1.0000   1.0000   1.0000
     1.0000   1.0000   1.0000   1.0000   1.0000   1.0000   1.0000   1.0000
     1.0000   1.0000   1.0000   1.0000   1.0000   1.0000   1.0000   1.0000
     1.0000   1.0000   1.0000   1.0000   1.0000   1.0000   1.0000   1.0000
     1.0000   1.0000   1.0000   1.0000   1.0000   1.0000   1.0000   1.0000
     1.0000   1.0000   1.0000   1.0000   1.0000   1.0000   1.0000   1.0000
     1.0000   1.0000   1.0000   1.0000   1.0000   1.0000   1.0000   1.0000
     1.0000   1.0000   1.0000   1.0000   1.0000   1.0000   1.0000   1.0000
     1.0000   1.0000   1.0000   1.0000   1.0000   1.0000   1.0000   1.0000
     1.0000   1.0000   1.0000   1.0000   1.0000   1.0000   1.0000   1.0000
     1.0000   1.0000   1.0000   1.0000   1.0000   1.0000   1.0000   1.0000
     1.0000   1.0000   1.0000   1.0000   1.0000   1.0000   1.0000   1.0000
     1.0000   1.0000   1.0000   1.0000   1.0000   1.0000   1.0000   1.0000
     1.0000   1.0000   1.0000   1.0000   1.0000   1.0000   1.0000   1.0000
     1.0000   1.0000   1.0000   1.0000   1.0000   1.0000   1.0000   1.0000
     1.0000   1.0000   1.0000   1.0000   1.0000   1.0000   1.0000   1.0000
     1.0000   1.0000   1.0000   1.0000   1.0000   1.0000   1.0000   1.0000
     1.0000   1.0000   1.0000   1.0000   1.0000   1.0000   1.0000   1.0000
     1.0000   1.0000   1.0000   1.0000   1.0000   1.0000   1.0000   1.0000
     1.0000   1.0000   1.0000   1.0000   1.0000   1.0000   1.0000   1.0000
     1.0000   1.0000   1.0000   1.0000   1.0000   1.0000   1.0000   1.0000
     1.0000   1.0000   1.0000   1.0000   1.0000   1.0000   1.0000   1.0000
     1.0000   1.0000   1.0000   1.0000   1.0000   1.0000   1.0000   1.0000
     1.0000   1.0000   1.0000   1.0000   1.0000   1.0000   1.0000   1.0000
     1.0000   1.0000   1.0000   1.0000   1.0000   1.0000   1.0000   1.0000
     1.0000   1.0000   1.0000   1.0000   1.0000   1.0000   1.0000   1.0000
     1.0000   1.0000   1.0000   1.0000   1.0000   1.0000   1.0000   1.0000
     1.0000   1.0000   1.0000   1.0000   1.0000   1.0000   1.0000   1.0000
     1.0000   1.0000   1.0000   1.0000   1.0000   1.0000   1.0000   1.0000
     1.0000   1.0000   1.0000   1.0000   1.0000   1.0000   1.0000   1.0000
     1.0000   1.0000   1.0000   1.0000   1.0000   1.0000   1.0000   1.0000
     1.0000   1.0000   1.0000   1.0000   1.0000   1.0000   1.0000   1.0000
     1.0000   1.0000   1.0000   1.0000   1.0000   1.0000   1.0000   1.0000
     1.0000   1.0000   1.0000   1.0000   1.0000   1.0000   1.0000   1.0000
     1.0000   1.0000   1.0000   1.0000   1.0000   1.0000   1.0000   1.0000
     1.0000   1.0000   1.0000   1.0000   1.0000   1.0000   1.0000   1.0000
     1.0000   1.0000   1.0000   1.0000   1.0000   1.0000   1.0000   1.0000
     1.0000   1.0000   1.0000   1.0000   1.0000   1.0000   1.0000   1.0000
     1.0000   1.0000   1.0000   1.0000   1.0000   1.0000   1.0000   1.0000
     1.0000   1.0000   1.0000   1.0000   1.0000   1.0000   1.0000   1.0000
     1.0000   1.0000   1.0000   1.0000   1.0000   1.0000   1.0000   1.0000
     1.0000   1.0000   1.0000   1.0000   1.0000   1.0000   1.0000   1.0000
     1.0000   1.0000   1.0000   1.0000   1.0000   1.0000   1.0000   1.0000
     1.0000   1.0000   1.0000   1.0000   1.0000   1.0000   1.0000   1.0000
     1.0000   1.0000   1.0000   1.0000   1.0000   1.0000   1.0000   1.0000
     1.0000   1.0000   1.0000   1.0000   1.0000   1.0000   1.0000   1.0000
     1.0000   1.0000   1.0000   1.0000   1.0000   1.0000   1.0000   1.0000
     1.0000   1.0000   1.0000   1.0000   1.0000   1.0000   1.0000   1.0000
     1.0000   1.0000   1.0000   1.0000   1.0000   1.0000   1.0000   1.0000
     1.0000   1.0000   1.0000   1.0000   1.0000   1.0000   1.0000   1.0000
     1.0000   1.0000   1.0000   1.0000   1.0000   1.0000   1.0000   1.0000
     1.0000   1.0000   1.0000   1.0000   1.0000   1.0000   1.0000   1.0000
     1.0000   1.0000   1.0000   1.0000   1.0000   1.0000   1.0000   1.0000
     1.0000   1.0000   1.0000   1.0000   1.0000   1.0000   1.0000   1.0000
     1.0000   1.0000   1.0000   1.0000   1.0000   1.0000   1.0000   1.0000
     1.0000   1.0000   1.0000   1.0000   1.0000   1.0000   1.0000   1.0000
     1.0000   1.0000   1.0000   1.0000   1.0000   1.0000   1.0000   1.0000
     1.0000   1.0000   1.0000   1.0000   1.0000   0.9999   0.9999   0.9999
     0.9998   0.9998   0.9997   0.9997   0.9997   0.9997   0.9996   0.9996
     0.9995   0.9995   0.9994   0.9993   0.9988   0.9983   0.9978   0.9971
     0.9969   0.9958   0.9948   0.9946   0.9934   0.9922   0.9918   0.9903
     0.9898   0.9878   0.9833   0.9760   0.9728   0.9695   0.9675   0.9448
     0.9194   0.9012   0.8890   0.8832   0.8737   0.8651   0.7441   0.6111
     0.6037   0.4741   0.1769   0.0560   0.0176   0.0027   0.0003   0.0002
     0.0001   0.0000   0.0000   0.0000   0.0000   0.0000   0.0000   0.0000
     0.0000   0.0000   0.0000   0.0000   0.0000   0.0000   0.0000   0.0000
     0.0000   0.0000   0.0000   0.0000   0.0000   0.0000   0.0000   0.0000
     0.0000   0.0000   0.0000   0.0000   0.0000   0.0000   0.0000   0.0000
     0.0000   0.0000   0.0000   0.0000   0.0000   0.0000   0.0000   0.0000
     0.0000   0.0000   0.0000   0.0000   0.0000   0.0000   0.0000   0.0000
     0.0000   0.0000   0.0000   0.0000   0.0000   0.0000   0.0000   0.0000
     0.0000   0.0000   0.0000   0.0000   0.0000   0.0000   0.0000   0.0000
     0.0000   0.0000   0.0000   0.0000   0.0000   0.0000   0.0000   0.0000

          k = 0.0000 0.2887-0.5700 (100576 PWs)   bands (ev):

   -71.2187 -71.2182 -71.2181 -71.2132 -71.2132 -71.2131 -71.1728 -71.1728
   -71.1720 -71.1719 -71.1718 -71.1718 -71.1717 -71.1717 -71.1717 -71.1716
   -71.1715 -71.1715 -71.1699 -71.1698 -71.1697 -71.1696 -71.1687 -71.1687
   -71.1686 -71.1686 -71.1685 -71.1685 -71.1684 -71.1683 -71.1282 -71.1280
   -71.1277 -71.1277 -71.1275 -71.1275 -70.0223 -70.0223 -70.0222 -70.0222
   -70.0221 -70.0220 -70.0105 -70.0104 -70.0103 -70.0103 -70.0103 -70.0102
   -70.0099 -70.0099 -70.0098 -70.0098 -70.0096 -70.0095 -70.0074 -70.0074
   -70.0072 -69.9988 -69.9988 -69.9986 -69.9818 -69.9816 -69.9712 -69.9711
   -69.9708 -69.9706 -69.9648 -69.9648 -69.9643 -69.8969 -69.8899 -69.8898
   -37.3523 -37.3518 -37.3515 -37.3456 -37.3456 -37.3454 -37.3083 -37.3083
   -37.3081 -37.3080 -37.3075 -37.3069 -37.3065 -37.3056 -37.3056 -37.3045
   -37.3042 -37.3041 -37.3019 -37.3019 -37.3001 -37.2999 -37.2995 -37.2995
   -37.2994 -37.2993 -37.2976 -37.2975 -37.2974 -37.2973 -37.2702 -37.2693
   -37.2690 -37.2682 -37.2678 -37.2670 -37.2642 -37.2637 -37.2636 -37.2596
   -37.2595 -37.2571 -37.2448 -37.2402 -37.2402 -37.2304 -37.2301 -37.2278
   -37.2179 -37.2174 -37.2172 -37.2166 -37.2162 -37.2158 -37.2143 -37.2137
   -37.2124 -37.2119 -37.2117 -37.2116 -37.2116 -37.2115 -37.2112 -37.2111
   -37.2105 -37.2103 -37.2102 -37.2099 -37.2068 -37.2065 -37.2056 -37.2050
   -37.2049 -37.2043 -37.2035 -37.2031 -37.2029 -37.2025 -37.2023 -37.2009
   -37.2009 -37.1996 -37.1970 -37.1967 -37.1966 -37.1963 -37.1960 -37.1959
   -37.1950 -37.1944 -37.1941 -37.1935 -37.1921 -37.1919 -37.1917 -37.1915
   -37.1795 -37.1788 -37.1781 -37.1778 -37.1777 -37.1774 -37.1372 -37.1371
   -37.1367 -37.1366 -37.1360 -37.1358 -36.3119 -36.3119 -36.3117 -36.3115
   -36.3112 -36.3110 -36.2932 -36.2931 -36.2928 -36.2758 -36.2751 -36.2526
   -36.2222 -36.2221 -36.2220 -36.2216 -36.2214 -36.2212 -36.2212 -36.2208
   -36.2208 -36.2207 -36.2207 -36.2205 -36.2144 -36.2144 -36.2141 -36.1923
   -36.1920 -36.1919 -36.1916 -36.1833 -36.1832 -36.1828 -36.1822 -36.1821
   -36.0725 -36.0720 -36.0718 -36.0718 -36.0718 -36.0714 -36.0707 -36.0706
   -36.0706 -36.0705 -36.0701 -36.0700 -36.0523 -36.0522 -36.0521 -36.0423
   -36.0421 -36.0419 -36.0403 -36.0397 -36.0396 -36.0395 -36.0393 -36.0393
   -36.0391 -36.0372 -36.0367 -36.0341 -36.0340 -36.0337 -36.0265 -36.0262
   -36.0258 -36.0257 -36.0253 -36.0251 -36.0247 -36.0232 -36.0232 -36.0229
   -36.0223 -36.0223 -36.0220 -36.0217 -36.0216 -36.0213 -36.0193 -36.0192
   -36.0189 -36.0135 -36.0133 -36.0131 -36.0097 -36.0094 -36.0091 -36.0042
   -35.9998 -35.9966 -35.9962 -35.9919 -35.9915 -35.9881 -35.9877 -35.9751
   -35.9750 -35.9746 -35.9275 -35.9200 -35.9199 -35.8929 -35.8928 -35.8721
     3.4543   3.6494   3.9616   4.1868   4.3024   4.4114   4.4413   4.4599
     4.7596   4.8540   4.8769   4.8980   5.0122   5.0365   5.2176   5.3708
     5.4091   5.4418   5.4557   5.4600   5.4924   5.5062   5.5207   5.5400
     5.5711   5.5801   5.5819   5.5875   5.6164   5.6255   5.9090   5.9247
     5.9490   5.9513   6.0366   6.2891   8.1410   9.6843   9.7722   9.7961
     9.8344   9.8373   9.8611   9.8695   9.8708   9.8892   9.8897   9.8984
     9.8991  10.2387  10.3873  10.4167  10.4758  10.5029  10.5064  10.5312
    10.5654  10.5697  10.5826  10.5871  10.5888  10.5925  10.7786  10.9154
    10.9238  10.9294  10.9480  11.1090  11.1669  11.2023  11.3136  11.3550
    11.3593  11.3941  11.4497  11.4750  11.5386  11.5436  11.5794  11.6558
    11.6768  11.7941  11.7979  11.8266  11.8325  11.8526  11.8613  12.0032
    12.0354  12.0516  12.0565  12.0765  12.0865  12.0881  12.0898  12.1193
    12.1504  12.1752  12.1819  12.1845  12.1896  12.1978  12.1994  12.2373
    12.2386  12.2440  12.2458  12.2503  12.2522  12.2543  12.2613  12.2636
    12.2773  12.2839  12.2902  12.2918  12.3213  12.3260  12.3545  12.3567
    12.3597  12.3657  12.3678  12.3738  12.3940  12.5823  12.5914  12.5972
    12.6137  12.6279  12.6382  12.6490  12.7014  12.7164  12.7358  12.7389
    12.8148  12.8216  13.0722  13.0868  13.0876  13.0975  13.1110  13.1119
    13.4627  13.4936  13.5276  13.5945  13.6198  13.6448  13.6543  13.6562
    13.6599  13.6612  13.6713  13.6762  13.7021  13.7205  13.7671  13.7739
    13.7790  13.7802  13.7856  13.7913  13.7961  13.8146  13.8159  13.8381
    13.8452  13.8477  13.8661  13.8662  13.8706  13.8719  13.8770  13.8915
    13.8931  13.9211  13.9331  13.9350  13.9417  13.9423  13.9503  13.9523
    13.9551  13.9585  13.9588  13.9646  13.9685  13.9947  14.0018  14.0033
    14.0188  14.0214  14.0409  14.0566  14.0621  14.0812  14.0822  14.0894
    14.1016  14.1056  14.1101  14.1234  14.1321  14.1676  14.1766  14.2039
    14.2053  14.2337  14.2559  14.2650  14.2791  14.2797  14.3109  14.3177
    14.3223  14.3253  14.3294  14.3410  14.4480  14.4515  14.4529  14.4616
    14.5167  14.5172  14.5458  14.5463  14.6905  14.7042  14.8074  14.8368
    14.8689  14.8760  14.8785  14.8800  14.8863  14.8977  14.9014  14.9119
    14.9272  14.9652  14.9684  14.9691  14.9741  14.9840  14.9907  15.0030
    15.0056  15.0098  15.0110  15.0211  15.0239  15.0250  15.0319  15.0400
    15.0461  15.0470  15.0551  15.0555  15.0631  15.0673  15.0769  15.0823
    15.0886  15.1142  15.1153  15.1175  15.1233  15.1257  15.1262  15.1305
    15.1380  15.1446  15.1456  15.1659  15.1663  15.1836  15.1962  15.2178
    15.2220  15.2255  15.2518  15.2557  15.2635  15.2635  15.2674  15.2686
    15.2732  15.2770  15.3517  15.3647  15.3790  15.3809  15.4131  15.4246
    15.4399  15.4433  15.4507  15.4509  15.4551  15.4700  15.5016  15.5038
    15.5113  15.5240  15.5311  15.5317  15.5392  15.5425  15.5432  15.5507
    15.5628  15.5636  15.5827  15.5955  15.6352  15.6383  15.6433  15.6482
    15.6509  15.6621  15.6901  15.6936  15.6992  15.7012  15.7037  15.7084
    15.8223  15.8286  15.8366  15.8514  15.8542  15.8592  15.8630  15.8684
    15.8813  15.8855  15.8928  15.9099  15.9151  15.9178  15.9181  15.9237
    15.9238  15.9304  15.9392  15.9481  15.9594  15.9657  15.9667  15.9746
    15.9769  15.9854  15.9898  16.0015  16.0069  16.0113  16.0159  16.0256
    16.0514  16.0738  16.0779  16.0811  16.0924  16.1034  16.1042  16.1093
    16.1270  16.1321  16.1331  16.1400  16.1462  16.2909  16.3040  16.3163
    16.3273  16.3303  16.3314  16.3357  16.3711  16.3781  16.3834  16.3878
    16.3949  16.4013  16.4472  16.4655  16.4871  16.4892  16.4928  16.4946
    16.5017  16.5214  16.5306  16.5470  16.5533  16.5544  16.5566  16.5580
    16.5595  16.5600  16.5823  16.6002  16.6336  16.6374  16.6436  16.6445
    16.6699  16.6920  16.6966  16.7114  16.7176  16.7182  16.7511  16.7621
    16.7784  16.7900  16.8214  16.8497  16.9333  16.9362  16.9698  16.9705
    16.9841  16.9890  16.9923  17.0017  17.1996  17.2045  17.2046  17.2183
    17.2214  17.2285  17.4241  17.4394  17.6416  17.6835  17.6999  17.8177
    17.8470  17.9046  17.9083  17.9221  17.9257  17.9274  17.9307  18.1382
    18.1543  18.1612  18.2699  18.2935  18.3033  18.3109  18.3210  18.4025
    18.4063  18.5354  18.5862  18.6018  18.6117  18.6130  18.6249  18.6300
    18.6409  18.6461  18.6506  18.7150  18.7927  18.9527  18.9945  19.0102
    19.0250  19.0287  19.0457  19.0955  19.1211  19.1464  19.1991  19.2154
    19.2367  19.2577  19.2605  19.2663  19.3055  19.3455  19.3700  19.3943
    19.4201  19.4474  19.5019  19.5076  19.5093  19.5103  19.5128  19.5605
    19.5999  19.6080  19.8996  19.9163  20.2741  20.2765  20.3451  20.3476
    20.4241  20.5265  20.6365  20.6881  21.1241  21.2855  21.7530  21.8715

     occupation numbers 
     1.0000   1.0000   1.0000   1.0000   1.0000   1.0000   1.0000   1.0000
     1.0000   1.0000   1.0000   1.0000   1.0000   1.0000   1.0000   1.0000
     1.0000   1.0000   1.0000   1.0000   1.0000   1.0000   1.0000   1.0000
     1.0000   1.0000   1.0000   1.0000   1.0000   1.0000   1.0000   1.0000
     1.0000   1.0000   1.0000   1.0000   1.0000   1.0000   1.0000   1.0000
     1.0000   1.0000   1.0000   1.0000   1.0000   1.0000   1.0000   1.0000
     1.0000   1.0000   1.0000   1.0000   1.0000   1.0000   1.0000   1.0000
     1.0000   1.0000   1.0000   1.0000   1.0000   1.0000   1.0000   1.0000
     1.0000   1.0000   1.0000   1.0000   1.0000   1.0000   1.0000   1.0000
     1.0000   1.0000   1.0000   1.0000   1.0000   1.0000   1.0000   1.0000
     1.0000   1.0000   1.0000   1.0000   1.0000   1.0000   1.0000   1.0000
     1.0000   1.0000   1.0000   1.0000   1.0000   1.0000   1.0000   1.0000
     1.0000   1.0000   1.0000   1.0000   1.0000   1.0000   1.0000   1.0000
     1.0000   1.0000   1.0000   1.0000   1.0000   1.0000   1.0000   1.0000
     1.0000   1.0000   1.0000   1.0000   1.0000   1.0000   1.0000   1.0000
     1.0000   1.0000   1.0000   1.0000   1.0000   1.0000   1.0000   1.0000
     1.0000   1.0000   1.0000   1.0000   1.0000   1.0000   1.0000   1.0000
     1.0000   1.0000   1.0000   1.0000   1.0000   1.0000   1.0000   1.0000
     1.0000   1.0000   1.0000   1.0000   1.0000   1.0000   1.0000   1.0000
     1.0000   1.0000   1.0000   1.0000   1.0000   1.0000   1.0000   1.0000
     1.0000   1.0000   1.0000   1.0000   1.0000   1.0000   1.0000   1.0000
     1.0000   1.0000   1.0000   1.0000   1.0000   1.0000   1.0000   1.0000
     1.0000   1.0000   1.0000   1.0000   1.0000   1.0000   1.0000   1.0000
     1.0000   1.0000   1.0000   1.0000   1.0000   1.0000   1.0000   1.0000
     1.0000   1.0000   1.0000   1.0000   1.0000   1.0000   1.0000   1.0000
     1.0000   1.0000   1.0000   1.0000   1.0000   1.0000   1.0000   1.0000
     1.0000   1.0000   1.0000   1.0000   1.0000   1.0000   1.0000   1.0000
     1.0000   1.0000   1.0000   1.0000   1.0000   1.0000   1.0000   1.0000
     1.0000   1.0000   1.0000   1.0000   1.0000   1.0000   1.0000   1.0000
     1.0000   1.0000   1.0000   1.0000   1.0000   1.0000   1.0000   1.0000
     1.0000   1.0000   1.0000   1.0000   1.0000   1.0000   1.0000   1.0000
     1.0000   1.0000   1.0000   1.0000   1.0000   1.0000   1.0000   1.0000
     1.0000   1.0000   1.0000   1.0000   1.0000   1.0000   1.0000   1.0000
     1.0000   1.0000   1.0000   1.0000   1.0000   1.0000   1.0000   1.0000
     1.0000   1.0000   1.0000   1.0000   1.0000   1.0000   1.0000   1.0000
     1.0000   1.0000   1.0000   1.0000   1.0000   1.0000   1.0000   1.0000
     1.0000   1.0000   1.0000   1.0000   1.0000   1.0000   1.0000   1.0000
     1.0000   1.0000   1.0000   1.0000   1.0000   1.0000   1.0000   1.0000
     1.0000   1.0000   1.0000   1.0000   1.0000   1.0000   1.0000   1.0000
     1.0000   1.0000   1.0000   1.0000   1.0000   1.0000   1.0000   1.0000
     1.0000   1.0000   1.0000   1.0000   1.0000   1.0000   1.0000   1.0000
     1.0000   1.0000   1.0000   1.0000   1.0000   1.0000   1.0000   1.0000
     1.0000   1.0000   1.0000   1.0000   1.0000   1.0000   1.0000   1.0000
     1.0000   1.0000   1.0000   1.0000   1.0000   1.0000   1.0000   1.0000
     1.0000   1.0000   1.0000   1.0000   1.0000   1.0000   1.0000   1.0000
     1.0000   1.0000   1.0000   1.0000   1.0000   1.0000   1.0000   1.0000
     1.0000   1.0000   1.0000   1.0000   1.0000   1.0000   1.0000   1.0000
     1.0000   1.0000   1.0000   1.0000   1.0000   1.0000   1.0000   1.0000
     1.0000   1.0000   1.0000   1.0000   1.0000   1.0000   1.0000   1.0000
     1.0000   1.0000   1.0000   1.0000   1.0000   1.0000   1.0000   1.0000
     1.0000   1.0000   1.0000   1.0000   1.0000   1.0000   1.0000   1.0000
     1.0000   1.0000   1.0000   1.0000   1.0000   1.0000   1.0000   1.0000
     1.0000   1.0000   1.0000   1.0000   1.0000   1.0000   1.0000   1.0000
     1.0000   1.0000   1.0000   1.0000   1.0000   1.0000   1.0000   1.0000
     1.0000   1.0000   1.0000   1.0000   1.0000   1.0000   1.0000   1.0000
     1.0000   1.0000   1.0000   1.0000   1.0000   1.0000   1.0000   1.0000
     1.0000   1.0000   1.0000   1.0000   1.0000   1.0000   1.0000   1.0000
     1.0000   1.0000   1.0000   1.0000   1.0000   1.0000   1.0000   1.0000
     1.0000   1.0000   1.0000   1.0000   1.0000   1.0000   1.0000   1.0000
     1.0000   1.0000   1.0000   1.0000   1.0000   1.0000   1.0000   1.0000
     1.0000   1.0000   1.0000   1.0000   1.0000   1.0000   1.0000   1.0000
     1.0000   1.0000   1.0000   1.0000   1.0000   1.0000   1.0000   1.0000
     1.0000   1.0000   1.0000   1.0000   1.0000   1.0000   1.0000   1.0000
     1.0000   1.0000   1.0000   1.0000   1.0000   1.0000   1.0000   1.0000
     1.0000   1.0000   1.0000   1.0000   1.0000   1.0000   1.0000   1.0000
     1.0000   1.0000   1.0000   1.0000   1.0000   1.0000   1.0000   1.0000
     1.0000   1.0000   1.0000   1.0000   1.0000   1.0000   1.0000   1.0000
     1.0000   1.0000   1.0000   1.0000   1.0000   1.0000   1.0000   1.0000
     1.0000   1.0000   1.0000   1.0000   1.0000   1.0000   1.0000   1.0000
     1.0000   1.0000   1.0000   1.0000   1.0000   1.0000   1.0000   1.0000
     1.0000   1.0000   1.0000   1.0000   1.0000   1.0000   1.0000   1.0000
     1.0000   1.0000   1.0000   1.0000   1.0000   1.0000   1.0000   1.0000
     1.0000   1.0000   1.0000   1.0000   1.0000   1.0000   1.0000   1.0000
     1.0000   1.0000   1.0000   1.0000   1.0000   1.0000   1.0000   1.0000
     1.0000   1.0000   1.0000   1.0000   1.0000   1.0000   1.0000   1.0000
     1.0000   1.0000   1.0000   1.0000   1.0000   1.0000   1.0000   1.0000
     1.0000   1.0000   1.0000   1.0000   1.0000   1.0000   1.0000   1.0000
     1.0000   1.0000   1.0000   1.0000   1.0000   1.0000   1.0000   1.0000
     1.0000   1.0000   1.0000   1.0000   1.0000   1.0000   1.0000   1.0000
     1.0000   1.0000   1.0000   1.0000   1.0000   1.0000   1.0000   1.0000
     1.0000   1.0000   1.0000   1.0000   1.0000   1.0000   1.0000   1.0000
     1.0000   1.0000   1.0000   1.0000   1.0000   1.0000   1.0000   1.0000
     1.0000   1.0000   1.0000   1.0000   1.0000   1.0000   1.0000   1.0000
     1.0000   1.0000   1.0000   1.0000   1.0000   1.0000   1.0000   1.0000
     1.0000   1.0000   1.0000   0.9999   0.9999   0.9999   0.9999   0.9999
     0.9999   0.9998   0.9998   0.9997   0.9997   0.9997   0.9997   0.9996
     0.9996   0.9996   0.9994   0.9992   0.9986   0.9985   0.9984   0.9983
     0.9975   0.9964   0.9962   0.9952   0.9947   0.9947   0.9914   0.9900
     0.9875   0.9854   0.9782   0.9693   0.9246   0.9224   0.8938   0.8931
     0.8795   0.8743   0.8707   0.8601   0.5208   0.5109   0.5106   0.4822
     0.4759   0.4610   0.1325   0.1163   0.0124   0.0069   0.0054   0.0008
     0.0005   0.0002   0.0001   0.0001   0.0001   0.0001   0.0001   0.0000
     0.0000   0.0000   0.0000   0.0000   0.0000   0.0000   0.0000   0.0000
     0.0000   0.0000   0.0000   0.0000   0.0000   0.0000   0.0000   0.0000
     0.0000   0.0000   0.0000   0.0000   0.0000   0.0000   0.0000   0.0000
     0.0000   0.0000   0.0000   0.0000   0.0000   0.0000   0.0000   0.0000
     0.0000   0.0000   0.0000   0.0000   0.0000   0.0000   0.0000   0.0000
     0.0000   0.0000   0.0000   0.0000   0.0000   0.0000   0.0000   0.0000
     0.0000   0.0000   0.0000   0.0000   0.0000   0.0000   0.0000   0.0000
     0.0000   0.0000   0.0000   0.0000   0.0000   0.0000   0.0000   0.0000

          k = 0.0000-0.5774 0.0000 (100622 PWs)   bands (ev):

   -71.2187 -71.2182 -71.2181 -71.2132 -71.2132 -71.2131 -71.1728 -71.1728
   -71.1720 -71.1719 -71.1718 -71.1718 -71.1717 -71.1717 -71.1717 -71.1716
   -71.1715 -71.1715 -71.1699 -71.1698 -71.1696 -71.1696 -71.1687 -71.1687
   -71.1685 -71.1685 -71.1685 -71.1685 -71.1684 -71.1683 -71.1282 -71.1280
   -71.1277 -71.1277 -71.1275 -71.1275 -70.0223 -70.0223 -70.0222 -70.0222
   -70.0221 -70.0220 -70.0105 -70.0104 -70.0103 -70.0103 -70.0103 -70.0102
   -70.0099 -70.0099 -70.0098 -70.0098 -70.0096 -70.0095 -70.0074 -70.0074
   -70.0072 -69.9988 -69.9988 -69.9986 -69.9818 -69.9816 -69.9712 -69.9711
   -69.9708 -69.9706 -69.9648 -69.9648 -69.9643 -69.8969 -69.8899 -69.8898
   -37.3523 -37.3518 -37.3515 -37.3456 -37.3455 -37.3454 -37.3084 -37.3081
   -37.3080 -37.3072 -37.3070 -37.3057 -37.3054 -37.3052 -37.3051 -37.3041
   -37.3040 -37.3038 -37.3038 -37.3037 -37.3025 -37.3021 -37.3018 -37.3015
   -37.2988 -37.2988 -37.2963 -37.2961 -37.2959 -37.2958 -37.2703 -37.2694
   -37.2691 -37.2683 -37.2680 -37.2669 -37.2641 -37.2636 -37.2635 -37.2596
   -37.2595 -37.2571 -37.2447 -37.2402 -37.2401 -37.2307 -37.2304 -37.2278
   -37.2180 -37.2176 -37.2164 -37.2163 -37.2160 -37.2159 -37.2141 -37.2139
   -37.2124 -37.2121 -37.2119 -37.2118 -37.2115 -37.2115 -37.2114 -37.2109
   -37.2107 -37.2099 -37.2091 -37.2088 -37.2084 -37.2080 -37.2058 -37.2054
   -37.2052 -37.2047 -37.2033 -37.2031 -37.2024 -37.2023 -37.2023 -37.2014
   -37.2003 -37.1994 -37.1973 -37.1969 -37.1969 -37.1966 -37.1962 -37.1960
   -37.1946 -37.1944 -37.1930 -37.1929 -37.1925 -37.1919 -37.1918 -37.1913
   -37.1793 -37.1785 -37.1784 -37.1780 -37.1780 -37.1776 -37.1372 -37.1370
   -37.1367 -37.1366 -37.1361 -37.1358 -36.3119 -36.3119 -36.3116 -36.3115
   -36.3113 -36.3110 -36.2931 -36.2931 -36.2928 -36.2758 -36.2751 -36.2526
   -36.2223 -36.2219 -36.2218 -36.2216 -36.2214 -36.2213 -36.2211 -36.2210
   -36.2208 -36.2208 -36.2207 -36.2205 -36.2144 -36.2144 -36.2141 -36.1924
   -36.1920 -36.1920 -36.1916 -36.1833 -36.1833 -36.1829 -36.1822 -36.1821
   -36.0723 -36.0722 -36.0718 -36.0718 -36.0717 -36.0714 -36.0707 -36.0706
   -36.0706 -36.0704 -36.0703 -36.0700 -36.0523 -36.0523 -36.0521 -36.0423
   -36.0422 -36.0419 -36.0401 -36.0399 -36.0395 -36.0395 -36.0394 -36.0391
   -36.0381 -36.0374 -36.0365 -36.0346 -36.0345 -36.0343 -36.0261 -36.0258
   -36.0257 -36.0255 -36.0253 -36.0250 -36.0244 -36.0236 -36.0235 -36.0228
   -36.0226 -36.0221 -36.0221 -36.0220 -36.0219 -36.0215 -36.0193 -36.0192
   -36.0189 -36.0133 -36.0133 -36.0131 -36.0096 -36.0095 -36.0091 -36.0041
   -35.9999 -35.9966 -35.9962 -35.9918 -35.9915 -35.9881 -35.9878 -35.9751
   -35.9750 -35.9746 -35.9275 -35.9200 -35.9199 -35.8929 -35.8928 -35.8721
     3.3814   3.5992   3.9419   4.1460   4.4182   4.5685   4.6158   4.6193
     4.7479   4.9219   4.9673   4.9695   5.0227   5.0293   5.0922   5.0969
     5.1560   5.2299   5.4453   5.4454   5.5072   5.5140   5.5950   5.5968
     5.6166   5.6187   5.6509   5.6523   5.6933   5.6998   5.7143   5.7175
     6.0058   6.0096   6.0237   6.0301   8.3201   9.8017   9.8048   9.8925
     9.8933   9.9598   9.9938  10.0073  10.1550  10.1799  10.1906  10.2026
    10.2157  10.2930  10.3256  10.3309  10.4774  10.5075  10.5148  10.5206
    10.5240  10.5311  10.5328  10.5400  10.6311  10.6371  10.6398  10.6432
    10.8459  10.8837  10.8996  10.9769  10.9892  10.9952  11.0792  11.1794
    11.1872  11.2016  11.2850  11.2940  11.3999  11.5115  11.5370  11.5536
    11.5762  11.5907  11.7295  11.7357  11.7384  11.7455  11.7457  11.7467
    11.7470  11.7554  11.8829  11.9327  11.9497  11.9530  12.0658  12.0806
    12.0829  12.0850  12.0862  12.0996  12.1421  12.1473  12.1480  12.1586
    12.2389  12.2711  12.2949  12.3006  12.3039  12.3049  12.3607  12.3744
    12.3916  12.4187  12.4321  12.5050  12.5066  12.5071  12.5164  12.5180
    12.5306  12.5313  12.5421  12.5481  12.5499  12.5574  12.6095  12.6147
    12.6182  12.6235  12.7434  12.7563  12.7799  12.7924  12.7965  12.8258
    12.9121  12.9588  13.0405  13.0573  13.1637  13.1844  13.1982  13.3165
    13.4750  13.5805  13.5817  13.6050  13.6095  13.6317  13.6343  13.6382
    13.6557  13.6575  13.6602  13.6695  13.7104  13.7217  13.7233  13.7295
    13.7340  13.7606  13.7715  13.7878  13.8106  13.8120  13.8192  13.8223
    13.8411  13.8544  13.8673  13.8691  13.8885  13.8943  13.9025  13.9059
    13.9109  13.9128  13.9135  13.9252  13.9326  13.9352  13.9395  13.9412
    13.9694  13.9744  13.9767  13.9784  13.9849  14.0413  14.0506  14.0527
    14.0583  14.0787  14.0800  14.0815  14.0856  14.0863  14.0866  14.0914
    14.0975  14.1000  14.1008  14.1231  14.1936  14.2067  14.2105  14.2139
    14.2157  14.2251  14.2291  14.2295  14.2363  14.2367  14.2521  14.2641
    14.2668  14.2686  14.2688  14.2882  14.2900  14.3084  14.3365  14.3713
    14.6128  14.6210  14.6485  14.6507  14.7403  14.7579  14.7584  14.7617
    14.7745  14.7750  14.7929  14.7969  14.8599  14.8653  14.8771  14.8912
    14.8917  14.8970  14.8979  14.9001  14.9023  14.9091  14.9762  14.9873
    14.9916  14.9918  15.0009  15.0051  15.0108  15.0113  15.0259  15.0341
    15.0514  15.0562  15.0661  15.0691  15.0770  15.0858  15.0903  15.1026
    15.1289  15.1323  15.1405  15.1434  15.1607  15.1647  15.1768  15.1807
    15.1870  15.1874  15.2068  15.2137  15.2212  15.2324  15.2327  15.2434
    15.2491  15.2682  15.2685  15.2703  15.2720  15.2828  15.3084  15.3187
    15.3430  15.3485  15.3493  15.3522  15.3574  15.3575  15.3606  15.3763
    15.3830  15.3885  15.4107  15.4142  15.4333  15.4374  15.4436  15.4475
    15.4662  15.4710  15.4965  15.5187  15.5528  15.5685  15.5888  15.5944
    15.6120  15.6185  15.6268  15.6308  15.6309  15.6449  15.6533  15.6672
    15.6988  15.7121  15.7153  15.7195  15.7250  15.7256  15.7344  15.7436
    15.7514  15.7533  15.7629  15.7706  15.7761  15.7817  15.8319  15.8398
    15.8486  15.8505  15.8532  15.8588  15.8887  15.8989  15.9275  15.9454
    15.9563  15.9599  15.9750  15.9769  15.9787  15.9788  15.9924  15.9939
    16.0632  16.0731  16.0758  16.0889  16.0892  16.1009  16.1079  16.1220
    16.1271  16.1293  16.1318  16.1330  16.1357  16.1363  16.1519  16.1727
    16.1735  16.1819  16.1956  16.1999  16.2581  16.2677  16.2823  16.2824
    16.2842  16.2870  16.2927  16.2979  16.3103  16.3118  16.3244  16.3347
    16.3918  16.3943  16.4006  16.4027  16.4039  16.4159  16.5335  16.5422
    16.5443  16.5457  16.5485  16.5532  16.5595  16.5649  16.5687  16.5687
    16.5882  16.5931  16.5944  16.5968  16.5989  16.6298  16.6566  16.6681
    16.6814  16.6901  16.6907  16.7081  16.7097  16.7102  16.7180  16.7271
    16.7921  16.7991  16.8032  16.8074  16.8122  16.8482  16.8535  16.8601
    16.8696  16.8718  16.8723  16.8759  16.8843  16.9026  16.9162  16.9203
    17.4341  17.4382  17.6769  17.6884  17.7505  17.7612  17.7646  17.7702
    17.9466  17.9560  17.9611  17.9673  17.9912  17.9970  18.0091  18.0167
    18.0493  18.0551  18.0762  18.0799  18.3401  18.3661  18.3843  18.3895
    18.4335  18.4406  18.4479  18.4553  18.4558  18.4582  18.4617  18.4691
    18.6516  18.6582  18.6643  18.6656  18.9563  19.0335  19.1059  19.1226
    19.1318  19.1430  19.2440  19.2467  19.2468  19.2667  19.3384  19.3430
    19.3569  19.3578  19.4522  19.4963  19.5079  19.5118  19.5322  19.5387
    19.5554  19.5607  19.6276  19.6367  19.6436  19.6547  19.6650  19.6772
    20.0021  20.0435  20.0455  20.0734  20.0919  20.0985  20.5564  20.6267
    20.7784  20.9507  20.9906  20.9963  21.1854  21.2784  21.2800  21.2921

     occupation numbers 
     1.0000   1.0000   1.0000   1.0000   1.0000   1.0000   1.0000   1.0000
     1.0000   1.0000   1.0000   1.0000   1.0000   1.0000   1.0000   1.0000
     1.0000   1.0000   1.0000   1.0000   1.0000   1.0000   1.0000   1.0000
     1.0000   1.0000   1.0000   1.0000   1.0000   1.0000   1.0000   1.0000
     1.0000   1.0000   1.0000   1.0000   1.0000   1.0000   1.0000   1.0000
     1.0000   1.0000   1.0000   1.0000   1.0000   1.0000   1.0000   1.0000
     1.0000   1.0000   1.0000   1.0000   1.0000   1.0000   1.0000   1.0000
     1.0000   1.0000   1.0000   1.0000   1.0000   1.0000   1.0000   1.0000
     1.0000   1.0000   1.0000   1.0000   1.0000   1.0000   1.0000   1.0000
     1.0000   1.0000   1.0000   1.0000   1.0000   1.0000   1.0000   1.0000
     1.0000   1.0000   1.0000   1.0000   1.0000   1.0000   1.0000   1.0000
     1.0000   1.0000   1.0000   1.0000   1.0000   1.0000   1.0000   1.0000
     1.0000   1.0000   1.0000   1.0000   1.0000   1.0000   1.0000   1.0000
     1.0000   1.0000   1.0000   1.0000   1.0000   1.0000   1.0000   1.0000
     1.0000   1.0000   1.0000   1.0000   1.0000   1.0000   1.0000   1.0000
     1.0000   1.0000   1.0000   1.0000   1.0000   1.0000   1.0000   1.0000
     1.0000   1.0000   1.0000   1.0000   1.0000   1.0000   1.0000   1.0000
     1.0000   1.0000   1.0000   1.0000   1.0000   1.0000   1.0000   1.0000
     1.0000   1.0000   1.0000   1.0000   1.0000   1.0000   1.0000   1.0000
     1.0000   1.0000   1.0000   1.0000   1.0000   1.0000   1.0000   1.0000
     1.0000   1.0000   1.0000   1.0000   1.0000   1.0000   1.0000   1.0000
     1.0000   1.0000   1.0000   1.0000   1.0000   1.0000   1.0000   1.0000
     1.0000   1.0000   1.0000   1.0000   1.0000   1.0000   1.0000   1.0000
     1.0000   1.0000   1.0000   1.0000   1.0000   1.0000   1.0000   1.0000
     1.0000   1.0000   1.0000   1.0000   1.0000   1.0000   1.0000   1.0000
     1.0000   1.0000   1.0000   1.0000   1.0000   1.0000   1.0000   1.0000
     1.0000   1.0000   1.0000   1.0000   1.0000   1.0000   1.0000   1.0000
     1.0000   1.0000   1.0000   1.0000   1.0000   1.0000   1.0000   1.0000
     1.0000   1.0000   1.0000   1.0000   1.0000   1.0000   1.0000   1.0000
     1.0000   1.0000   1.0000   1.0000   1.0000   1.0000   1.0000   1.0000
     1.0000   1.0000   1.0000   1.0000   1.0000   1.0000   1.0000   1.0000
     1.0000   1.0000   1.0000   1.0000   1.0000   1.0000   1.0000   1.0000
     1.0000   1.0000   1.0000   1.0000   1.0000   1.0000   1.0000   1.0000
     1.0000   1.0000   1.0000   1.0000   1.0000   1.0000   1.0000   1.0000
     1.0000   1.0000   1.0000   1.0000   1.0000   1.0000   1.0000   1.0000
     1.0000   1.0000   1.0000   1.0000   1.0000   1.0000   1.0000   1.0000
     1.0000   1.0000   1.0000   1.0000   1.0000   1.0000   1.0000   1.0000
     1.0000   1.0000   1.0000   1.0000   1.0000   1.0000   1.0000   1.0000
     1.0000   1.0000   1.0000   1.0000   1.0000   1.0000   1.0000   1.0000
     1.0000   1.0000   1.0000   1.0000   1.0000   1.0000   1.0000   1.0000
     1.0000   1.0000   1.0000   1.0000   1.0000   1.0000   1.0000   1.0000
     1.0000   1.0000   1.0000   1.0000   1.0000   1.0000   1.0000   1.0000
     1.0000   1.0000   1.0000   1.0000   1.0000   1.0000   1.0000   1.0000
     1.0000   1.0000   1.0000   1.0000   1.0000   1.0000   1.0000   1.0000
     1.0000   1.0000   1.0000   1.0000   1.0000   1.0000   1.0000   1.0000
     1.0000   1.0000   1.0000   1.0000   1.0000   1.0000   1.0000   1.0000
     1.0000   1.0000   1.0000   1.0000   1.0000   1.0000   1.0000   1.0000
     1.0000   1.0000   1.0000   1.0000   1.0000   1.0000   1.0000   1.0000
     1.0000   1.0000   1.0000   1.0000   1.0000   1.0000   1.0000   1.0000
     1.0000   1.0000   1.0000   1.0000   1.0000   1.0000   1.0000   1.0000
     1.0000   1.0000   1.0000   1.0000   1.0000   1.0000   1.0000   1.0000
     1.0000   1.0000   1.0000   1.0000   1.0000   1.0000   1.0000   1.0000
     1.0000   1.0000   1.0000   1.0000   1.0000   1.0000   1.0000   1.0000
     1.0000   1.0000   1.0000   1.0000   1.0000   1.0000   1.0000   1.0000
     1.0000   1.0000   1.0000   1.0000   1.0000   1.0000   1.0000   1.0000
     1.0000   1.0000   1.0000   1.0000   1.0000   1.0000   1.0000   1.0000
     1.0000   1.0000   1.0000   1.0000   1.0000   1.0000   1.0000   1.0000
     1.0000   1.0000   1.0000   1.0000   1.0000   1.0000   1.0000   1.0000
     1.0000   1.0000   1.0000   1.0000   1.0000   1.0000   1.0000   1.0000
     1.0000   1.0000   1.0000   1.0000   1.0000   1.0000   1.0000   1.0000
     1.0000   1.0000   1.0000   1.0000   1.0000   1.0000   1.0000   1.0000
     1.0000   1.0000   1.0000   1.0000   1.0000   1.0000   1.0000   1.0000
     1.0000   1.0000   1.0000   1.0000   1.0000   1.0000   1.0000   1.0000
     1.0000   1.0000   1.0000   1.0000   1.0000   1.0000   1.0000   1.0000
     1.0000   1.0000   1.0000   1.0000   1.0000   1.0000   1.0000   1.0000
     1.0000   1.0000   1.0000   1.0000   1.0000   1.0000   1.0000   1.0000
     1.0000   1.0000   1.0000   1.0000   1.0000   1.0000   1.0000   1.0000
     1.0000   1.0000   1.0000   1.0000   1.0000   1.0000   1.0000   1.0000
     1.0000   1.0000   1.0000   1.0000   1.0000   1.0000   1.0000   1.0000
     1.0000   1.0000   1.0000   1.0000   1.0000   1.0000   1.0000   1.0000
     1.0000   1.0000   1.0000   1.0000   1.0000   1.0000   1.0000   1.0000
     1.0000   1.0000   1.0000   1.0000   1.0000   1.0000   1.0000   1.0000
     1.0000   1.0000   1.0000   1.0000   1.0000   1.0000   1.0000   1.0000
     1.0000   1.0000   1.0000   1.0000   1.0000   1.0000   1.0000   1.0000
     1.0000   1.0000   1.0000   1.0000   1.0000   1.0000   1.0000   1.0000
     1.0000   1.0000   1.0000   1.0000   1.0000   1.0000   1.0000   1.0000
     1.0000   1.0000   1.0000   1.0000   1.0000   1.0000   1.0000   1.0000
     1.0000   1.0000   1.0000   1.0000   1.0000   1.0000   1.0000   1.0000
     1.0000   1.0000   1.0000   1.0000   1.0000   1.0000   1.0000   1.0000
     1.0000   1.0000   1.0000   1.0000   1.0000   1.0000   1.0000   1.0000
     1.0000   1.0000   1.0000   1.0000   1.0000   1.0000   1.0000   1.0000
     1.0000   1.0000   1.0000   1.0000   1.0000   1.0000   1.0000   1.0000
     1.0000   1.0000   1.0000   1.0000   1.0000   1.0000   1.0000   1.0000
     1.0000   1.0000   1.0000   1.0000   1.0000   1.0000   1.0000   1.0000
     1.0000   1.0000   1.0000   1.0000   1.0000   1.0000   0.9998   0.9997
     0.9997   0.9997   0.9997   0.9997   0.9996   0.9996   0.9996   0.9996
     0.9994   0.9993   0.9993   0.9993   0.9992   0.9987   0.9980   0.9976
     0.9970   0.9965   0.9965   0.9954   0.9953   0.9953   0.9947   0.9939
     0.9850   0.9836   0.9827   0.9817   0.9806   0.9699   0.9679   0.9654
     0.9614   0.9605   0.9602   0.9586   0.9546   0.9448   0.9364   0.9337
     0.1218   0.1175   0.0076   0.0064   0.0025   0.0021   0.0020   0.0018
     0.0001   0.0001   0.0000   0.0000   0.0000   0.0000   0.0000   0.0000
     0.0000   0.0000   0.0000   0.0000   0.0000   0.0000   0.0000   0.0000
     0.0000   0.0000   0.0000   0.0000   0.0000   0.0000   0.0000   0.0000
     0.0000   0.0000   0.0000   0.0000   0.0000   0.0000   0.0000   0.0000
     0.0000   0.0000   0.0000   0.0000   0.0000   0.0000   0.0000   0.0000
     0.0000   0.0000   0.0000   0.0000   0.0000   0.0000   0.0000   0.0000
     0.0000   0.0000   0.0000   0.0000   0.0000   0.0000   0.0000   0.0000
     0.0000   0.0000   0.0000   0.0000   0.0000   0.0000   0.0000   0.0000
     0.0000   0.0000   0.0000   0.0000   0.0000   0.0000   0.0000   0.0000

          k = 0.0000-0.5774 0.2850 (100630 PWs)   bands (ev):

   -71.2187 -71.2182 -71.2181 -71.2132 -71.2132 -71.2131 -71.1728 -71.1728
   -71.1720 -71.1719 -71.1718 -71.1718 -71.1717 -71.1717 -71.1716 -71.1716
   -71.1715 -71.1715 -71.1699 -71.1698 -71.1696 -71.1696 -71.1687 -71.1687
   -71.1685 -71.1685 -71.1685 -71.1685 -71.1684 -71.1683 -71.1282 -71.1280
   -71.1277 -71.1277 -71.1275 -71.1275 -70.0223 -70.0223 -70.0222 -70.0222
   -70.0221 -70.0220 -70.0105 -70.0104 -70.0103 -70.0103 -70.0103 -70.0102
   -70.0099 -70.0099 -70.0098 -70.0098 -70.0096 -70.0095 -70.0074 -70.0074
   -70.0072 -69.9988 -69.9988 -69.9986 -69.9818 -69.9816 -69.9712 -69.9711
   -69.9708 -69.9706 -69.9648 -69.9648 -69.9643 -69.8969 -69.8899 -69.8898
   -37.3523 -37.3518 -37.3515 -37.3456 -37.3455 -37.3454 -37.3083 -37.3081
   -37.3080 -37.3077 -37.3075 -37.3064 -37.3059 -37.3056 -37.3054 -37.3043
   -37.3041 -37.3040 -37.3030 -37.3029 -37.3010 -37.3009 -37.3007 -37.3005
   -37.2993 -37.2993 -37.2967 -37.2966 -37.2964 -37.2964 -37.2702 -37.2694
   -37.2691 -37.2683 -37.2679 -37.2669 -37.2641 -37.2637 -37.2636 -37.2596
   -37.2595 -37.2571 -37.2447 -37.2402 -37.2401 -37.2307 -37.2304 -37.2278
   -37.2180 -37.2176 -37.2165 -37.2163 -37.2160 -37.2159 -37.2141 -37.2139
   -37.2125 -37.2119 -37.2119 -37.2118 -37.2115 -37.2115 -37.2113 -37.2110
   -37.2107 -37.2099 -37.2091 -37.2088 -37.2084 -37.2081 -37.2059 -37.2054
   -37.2053 -37.2047 -37.2033 -37.2031 -37.2025 -37.2024 -37.2021 -37.2014
   -37.2005 -37.1993 -37.1974 -37.1969 -37.1968 -37.1966 -37.1962 -37.1960
   -37.1946 -37.1944 -37.1930 -37.1929 -37.1926 -37.1919 -37.1919 -37.1913
   -37.1793 -37.1785 -37.1784 -37.1780 -37.1780 -37.1776 -37.1372 -37.1370
   -37.1367 -37.1366 -37.1361 -37.1358 -36.3119 -36.3119 -36.3116 -36.3115
   -36.3114 -36.3110 -36.2932 -36.2931 -36.2928 -36.2758 -36.2751 -36.2526
   -36.2223 -36.2219 -36.2218 -36.2216 -36.2214 -36.2214 -36.2211 -36.2210
   -36.2208 -36.2208 -36.2207 -36.2205 -36.2144 -36.2144 -36.2141 -36.1923
   -36.1920 -36.1920 -36.1916 -36.1833 -36.1833 -36.1829 -36.1822 -36.1821
   -36.0723 -36.0722 -36.0718 -36.0718 -36.0718 -36.0714 -36.0707 -36.0706
   -36.0706 -36.0704 -36.0703 -36.0700 -36.0523 -36.0523 -36.0521 -36.0423
   -36.0422 -36.0419 -36.0401 -36.0399 -36.0395 -36.0395 -36.0394 -36.0391
   -36.0385 -36.0377 -36.0366 -36.0343 -36.0342 -36.0341 -36.0262 -36.0258
   -36.0258 -36.0257 -36.0253 -36.0252 -36.0246 -36.0233 -36.0232 -36.0230
   -36.0224 -36.0222 -36.0221 -36.0218 -36.0216 -36.0214 -36.0193 -36.0192
   -36.0189 -36.0134 -36.0133 -36.0131 -36.0096 -36.0095 -36.0091 -36.0041
   -35.9998 -35.9966 -35.9962 -35.9919 -35.9915 -35.9881 -35.9877 -35.9751
   -35.9750 -35.9746 -35.9275 -35.9200 -35.9199 -35.8929 -35.8928 -35.8721
     3.4349   3.6699   3.9465   4.1789   4.2043   4.2092   4.5362   4.6788
     4.7851   4.9698   5.0191   5.0538   5.1397   5.1444   5.1470   5.2469
     5.2695   5.3025   5.3245   5.3668   5.4725   5.4783   5.4808   5.5292
     5.5915   5.6291   5.6350   5.6410   5.6462   5.6575   5.8642   5.8693
     5.8914   5.8921   6.1353   6.1392   8.2250   9.7608   9.8706   9.8748
     9.8980   9.9402   9.9421   9.9617  10.0178  10.1000  10.1084  10.1350
    10.1501  10.2275  10.2388  10.2409  10.2540  10.2641  10.3279  10.3452
    10.5337  10.5352  10.5440  10.5493  10.5794  10.5852  10.8100  10.8732
    10.9118  10.9162  10.9799  11.1023  11.1254  11.2894  11.2951  11.3320
    11.3391  11.3498  11.3530  11.3722  11.4970  11.6096  11.6190  11.6305
    11.6373  11.7111  11.7145  11.7170  11.7220  11.7437  11.7737  11.7812
    11.9008  11.9318  11.9787  11.9833  11.9848  11.9924  12.0052  12.0852
    12.0927  12.0984  12.1041  12.1114  12.1228  12.1236  12.1241  12.1288
    12.1692  12.2002  12.2448  12.2462  12.2692  12.2730  12.2887  12.2971
    12.3587  12.3930  12.3940  12.3942  12.4211  12.4288  12.4718  12.4730
    12.5309  12.5424  12.5560  12.5619  12.6066  12.6252  12.6328  12.6371
    12.6414  12.6479  12.7319  12.7445  12.7753  12.7766  12.7957  12.8388
    12.8835  12.9011  12.9841  13.0025  13.0309  13.0484  13.1193  13.1684
    13.4776  13.5742  13.5756  13.5997  13.6049  13.6298  13.6337  13.6453
    13.6562  13.6728  13.6789  13.6982  13.7161  13.7243  13.7266  13.7307
    13.7565  13.7698  13.7832  13.7897  13.7978  13.8111  13.8114  13.8205
    13.8228  13.8493  13.8625  13.8699  13.8756  13.8764  13.8794  13.8887
    13.8908  13.9011  13.9175  13.9251  13.9310  13.9351  13.9398  13.9405
    13.9597  13.9631  13.9782  13.9790  14.0068  14.0298  14.0333  14.0457
    14.0596  14.0604  14.0655  14.0670  14.0811  14.0833  14.0907  14.0954
    14.1072  14.1229  14.1667  14.1691  14.1767  14.1811  14.1944  14.1983
    14.2090  14.2098  14.2106  14.2130  14.2229  14.2269  14.2342  14.2372
    14.2574  14.2717  14.2718  14.2949  14.3592  14.3839  14.3893  14.4053
    14.5259  14.5301  14.5723  14.5753  14.7775  14.7789  14.7827  14.8023
    14.8445  14.8557  14.8631  14.8723  14.8763  14.8781  14.9010  14.9031
    14.9370  14.9396  14.9451  14.9469  14.9502  14.9696  14.9722  14.9771
    15.0073  15.0132  15.0160  15.0206  15.0268  15.0379  15.0414  15.0418
    15.0442  15.0463  15.0529  15.0585  15.0867  15.0902  15.1011  15.1024
    15.1173  15.1176  15.1234  15.1262  15.1347  15.1347  15.1394  15.1479
    15.1521  15.1577  15.1598  15.1694  15.1801  15.1809  15.2001  15.2059
    15.2521  15.2557  15.2748  15.2827  15.2859  15.2926  15.3031  15.3073
    15.3151  15.3217  15.3250  15.3289  15.3497  15.3513  15.3691  15.3834
    15.4301  15.4320  15.4415  15.4463  15.4547  15.4627  15.4684  15.4772
    15.4828  15.4919  15.5351  15.5467  15.5518  15.5565  15.5596  15.5758
    15.5761  15.5912  15.6154  15.6191  15.6202  15.6251  15.6266  15.6387
    15.6427  15.6504  15.7199  15.7275  15.7467  15.7570  15.7591  15.7679
    15.7853  15.7936  15.7956  15.7981  15.8199  15.8359  15.8431  15.8488
    15.8553  15.8665  15.8701  15.8790  15.8889  15.8941  15.9008  15.9036
    15.9205  15.9208  15.9507  15.9639  15.9688  15.9780  16.0173  16.0232
    16.0252  16.0263  16.0399  16.0494  16.0506  16.0706  16.0710  16.0725
    16.0889  16.0943  16.1022  16.1044  16.1248  16.1335  16.1713  16.1750
    16.1888  16.1997  16.2012  16.2136  16.2217  16.2330  16.2353  16.2360
    16.2644  16.2723  16.2798  16.2844  16.2861  16.2894  16.3042  16.3066
    16.3870  16.4115  16.4261  16.4378  16.4604  16.4733  16.4760  16.5055
    16.5366  16.5411  16.5442  16.5466  16.5533  16.5576  16.5617  16.5678
    16.5740  16.5852  16.5917  16.6165  16.6321  16.6361  16.6416  16.6578
    16.6752  16.6953  16.6995  16.7159  16.7589  16.7732  16.7765  16.7846
    16.7900  16.7932  16.7982  16.8046  16.8292  16.8367  16.8441  16.8460
    16.8698  16.8725  16.9294  16.9450  16.9620  16.9820  17.0756  17.0803
    17.3450  17.3554  17.5436  17.5662  17.6995  17.7105  17.8243  17.8331
    17.8600  17.8632  17.9345  17.9497  18.0187  18.0232  18.0319  18.0433
    18.0928  18.1014  18.1312  18.1439  18.1675  18.1825  18.3670  18.3783
    18.4086  18.4484  18.4579  18.5067  18.6063  18.6193  18.7499  18.7605
    18.7705  18.8113  18.8118  18.8177  18.8209  18.8375  18.9542  18.9570
    18.9784  19.0093  19.0137  19.0776  19.1349  19.1421  19.1851  19.1928
    19.2759  19.2771  19.3710  19.3885  19.5041  19.5196  19.5708  19.5893
    19.6400  19.6521  19.6660  19.6717  19.6751  19.6879  19.6897  19.7338
    19.7952  19.7955  19.9156  19.9353  20.0379  20.0422  20.1445  20.2454
    20.6707  20.7074  20.8909  20.8983  21.1570  21.1761  21.3437  21.5357

     occupation numbers 
     1.0000   1.0000   1.0000   1.0000   1.0000   1.0000   1.0000   1.0000
     1.0000   1.0000   1.0000   1.0000   1.0000   1.0000   1.0000   1.0000
     1.0000   1.0000   1.0000   1.0000   1.0000   1.0000   1.0000   1.0000
     1.0000   1.0000   1.0000   1.0000   1.0000   1.0000   1.0000   1.0000
     1.0000   1.0000   1.0000   1.0000   1.0000   1.0000   1.0000   1.0000
     1.0000   1.0000   1.0000   1.0000   1.0000   1.0000   1.0000   1.0000
     1.0000   1.0000   1.0000   1.0000   1.0000   1.0000   1.0000   1.0000
     1.0000   1.0000   1.0000   1.0000   1.0000   1.0000   1.0000   1.0000
     1.0000   1.0000   1.0000   1.0000   1.0000   1.0000   1.0000   1.0000
     1.0000   1.0000   1.0000   1.0000   1.0000   1.0000   1.0000   1.0000
     1.0000   1.0000   1.0000   1.0000   1.0000   1.0000   1.0000   1.0000
     1.0000   1.0000   1.0000   1.0000   1.0000   1.0000   1.0000   1.0000
     1.0000   1.0000   1.0000   1.0000   1.0000   1.0000   1.0000   1.0000
     1.0000   1.0000   1.0000   1.0000   1.0000   1.0000   1.0000   1.0000
     1.0000   1.0000   1.0000   1.0000   1.0000   1.0000   1.0000   1.0000
     1.0000   1.0000   1.0000   1.0000   1.0000   1.0000   1.0000   1.0000
     1.0000   1.0000   1.0000   1.0000   1.0000   1.0000   1.0000   1.0000
     1.0000   1.0000   1.0000   1.0000   1.0000   1.0000   1.0000   1.0000
     1.0000   1.0000   1.0000   1.0000   1.0000   1.0000   1.0000   1.0000
     1.0000   1.0000   1.0000   1.0000   1.0000   1.0000   1.0000   1.0000
     1.0000   1.0000   1.0000   1.0000   1.0000   1.0000   1.0000   1.0000
     1.0000   1.0000   1.0000   1.0000   1.0000   1.0000   1.0000   1.0000
     1.0000   1.0000   1.0000   1.0000   1.0000   1.0000   1.0000   1.0000
     1.0000   1.0000   1.0000   1.0000   1.0000   1.0000   1.0000   1.0000
     1.0000   1.0000   1.0000   1.0000   1.0000   1.0000   1.0000   1.0000
     1.0000   1.0000   1.0000   1.0000   1.0000   1.0000   1.0000   1.0000
     1.0000   1.0000   1.0000   1.0000   1.0000   1.0000   1.0000   1.0000
     1.0000   1.0000   1.0000   1.0000   1.0000   1.0000   1.0000   1.0000
     1.0000   1.0000   1.0000   1.0000   1.0000   1.0000   1.0000   1.0000
     1.0000   1.0000   1.0000   1.0000   1.0000   1.0000   1.0000   1.0000
     1.0000   1.0000   1.0000   1.0000   1.0000   1.0000   1.0000   1.0000
     1.0000   1.0000   1.0000   1.0000   1.0000   1.0000   1.0000   1.0000
     1.0000   1.0000   1.0000   1.0000   1.0000   1.0000   1.0000   1.0000
     1.0000   1.0000   1.0000   1.0000   1.0000   1.0000   1.0000   1.0000
     1.0000   1.0000   1.0000   1.0000   1.0000   1.0000   1.0000   1.0000
     1.0000   1.0000   1.0000   1.0000   1.0000   1.0000   1.0000   1.0000
     1.0000   1.0000   1.0000   1.0000   1.0000   1.0000   1.0000   1.0000
     1.0000   1.0000   1.0000   1.0000   1.0000   1.0000   1.0000   1.0000
     1.0000   1.0000   1.0000   1.0000   1.0000   1.0000   1.0000   1.0000
     1.0000   1.0000   1.0000   1.0000   1.0000   1.0000   1.0000   1.0000
     1.0000   1.0000   1.0000   1.0000   1.0000   1.0000   1.0000   1.0000
     1.0000   1.0000   1.0000   1.0000   1.0000   1.0000   1.0000   1.0000
     1.0000   1.0000   1.0000   1.0000   1.0000   1.0000   1.0000   1.0000
     1.0000   1.0000   1.0000   1.0000   1.0000   1.0000   1.0000   1.0000
     1.0000   1.0000   1.0000   1.0000   1.0000   1.0000   1.0000   1.0000
     1.0000   1.0000   1.0000   1.0000   1.0000   1.0000   1.0000   1.0000
     1.0000   1.0000   1.0000   1.0000   1.0000   1.0000   1.0000   1.0000
     1.0000   1.0000   1.0000   1.0000   1.0000   1.0000   1.0000   1.0000
     1.0000   1.0000   1.0000   1.0000   1.0000   1.0000   1.0000   1.0000
     1.0000   1.0000   1.0000   1.0000   1.0000   1.0000   1.0000   1.0000
     1.0000   1.0000   1.0000   1.0000   1.0000   1.0000   1.0000   1.0000
     1.0000   1.0000   1.0000   1.0000   1.0000   1.0000   1.0000   1.0000
     1.0000   1.0000   1.0000   1.0000   1.0000   1.0000   1.0000   1.0000
     1.0000   1.0000   1.0000   1.0000   1.0000   1.0000   1.0000   1.0000
     1.0000   1.0000   1.0000   1.0000   1.0000   1.0000   1.0000   1.0000
     1.0000   1.0000   1.0000   1.0000   1.0000   1.0000   1.0000   1.0000
     1.0000   1.0000   1.0000   1.0000   1.0000   1.0000   1.0000   1.0000
     1.0000   1.0000   1.0000   1.0000   1.0000   1.0000   1.0000   1.0000
     1.0000   1.0000   1.0000   1.0000   1.0000   1.0000   1.0000   1.0000
     1.0000   1.0000   1.0000   1.0000   1.0000   1.0000   1.0000   1.0000
     1.0000   1.0000   1.0000   1.0000   1.0000   1.0000   1.0000   1.0000
     1.0000   1.0000   1.0000   1.0000   1.0000   1.0000   1.0000   1.0000
     1.0000   1.0000   1.0000   1.0000   1.0000   1.0000   1.0000   1.0000
     1.0000   1.0000   1.0000   1.0000   1.0000   1.0000   1.0000   1.0000
     1.0000   1.0000   1.0000   1.0000   1.0000   1.0000   1.0000   1.0000
     1.0000   1.0000   1.0000   1.0000   1.0000   1.0000   1.0000   1.0000
     1.0000   1.0000   1.0000   1.0000   1.0000   1.0000   1.0000   1.0000
     1.0000   1.0000   1.0000   1.0000   1.0000   1.0000   1.0000   1.0000
     1.0000   1.0000   1.0000   1.0000   1.0000   1.0000   1.0000   1.0000
     1.0000   1.0000   1.0000   1.0000   1.0000   1.0000   1.0000   1.0000
     1.0000   1.0000   1.0000   1.0000   1.0000   1.0000   1.0000   1.0000
     1.0000   1.0000   1.0000   1.0000   1.0000   1.0000   1.0000   1.0000
     1.0000   1.0000   1.0000   1.0000   1.0000   1.0000   1.0000   1.0000
     1.0000   1.0000   1.0000   1.0000   1.0000   1.0000   1.0000   1.0000
     1.0000   1.0000   1.0000   1.0000   1.0000   1.0000   1.0000   1.0000
     1.0000   1.0000   1.0000   1.0000   1.0000   1.0000   1.0000   1.0000
     1.0000   1.0000   1.0000   1.0000   1.0000   1.0000   1.0000   1.0000
     1.0000   1.0000   1.0000   1.0000   1.0000   1.0000   1.0000   1.0000
     1.0000   1.0000   1.0000   1.0000   1.0000   1.0000   1.0000   1.0000
     1.0000   1.0000   1.0000   1.0000   1.0000   1.0000   1.0000   1.0000
     1.0000   1.0000   1.0000   1.0000   1.0000   1.0000   1.0000   1.0000
     1.0000   1.0000   1.0000   1.0000   1.0000   1.0000   1.0000   1.0000
     1.0000   1.0000   1.0000   1.0000   1.0000   1.0000   1.0000   1.0000
     1.0000   1.0000   1.0000   1.0000   1.0000   1.0000   1.0000   1.0000
     1.0000   1.0000   1.0000   1.0000   1.0000   0.9999   0.9999   0.9999
     0.9998   0.9997   0.9997   0.9997   0.9997   0.9996   0.9996   0.9996
     0.9995   0.9994   0.9993   0.9990   0.9987   0.9986   0.9984   0.9979
     0.9973   0.9962   0.9960   0.9949   0.9904   0.9884   0.9878   0.9864
     0.9854   0.9848   0.9838   0.9824   0.9760   0.9737   0.9713   0.9706
     0.9613   0.9601   0.9274   0.9155   0.9010   0.8817   0.7571   0.7494
     0.2411   0.2245   0.0413   0.0320   0.0055   0.0046   0.0007   0.0006
     0.0004   0.0003   0.0001   0.0001   0.0000   0.0000   0.0000   0.0000
     0.0000   0.0000   0.0000   0.0000   0.0000   0.0000   0.0000   0.0000
     0.0000   0.0000   0.0000   0.0000   0.0000   0.0000   0.0000   0.0000
     0.0000   0.0000   0.0000   0.0000   0.0000   0.0000   0.0000   0.0000
     0.0000   0.0000   0.0000   0.0000   0.0000   0.0000   0.0000   0.0000
     0.0000   0.0000   0.0000   0.0000   0.0000   0.0000   0.0000   0.0000
     0.0000   0.0000   0.0000   0.0000   0.0000   0.0000   0.0000   0.0000
     0.0000   0.0000   0.0000   0.0000   0.0000   0.0000   0.0000   0.0000
     0.0000   0.0000   0.0000   0.0000   0.0000   0.0000   0.0000   0.0000

          k = 0.0000-0.5774-0.5700 (100572 PWs)   bands (ev):

   -71.2187 -71.2182 -71.2181 -71.2132 -71.2132 -71.2131 -71.1728 -71.1728
   -71.1720 -71.1718 -71.1718 -71.1718 -71.1717 -71.1717 -71.1716 -71.1716
   -71.1715 -71.1715 -71.1699 -71.1698 -71.1696 -71.1696 -71.1687 -71.1687
   -71.1686 -71.1685 -71.1685 -71.1685 -71.1684 -71.1683 -71.1282 -71.1280
   -71.1277 -71.1277 -71.1275 -71.1275 -70.0223 -70.0223 -70.0222 -70.0222
   -70.0221 -70.0220 -70.0105 -70.0104 -70.0103 -70.0103 -70.0103 -70.0102
   -70.0099 -70.0099 -70.0098 -70.0098 -70.0096 -70.0095 -70.0074 -70.0074
   -70.0072 -69.9988 -69.9988 -69.9986 -69.9818 -69.9816 -69.9712 -69.9711
   -69.9708 -69.9706 -69.9648 -69.9648 -69.9643 -69.8969 -69.8899 -69.8898
   -37.3523 -37.3518 -37.3515 -37.3455 -37.3455 -37.3454 -37.3083 -37.3081
   -37.3081 -37.3079 -37.3077 -37.3069 -37.3061 -37.3058 -37.3055 -37.3045
   -37.3043 -37.3042 -37.3019 -37.3019 -37.3000 -37.3000 -37.2995 -37.2995
   -37.2993 -37.2993 -37.2976 -37.2975 -37.2974 -37.2973 -37.2702 -37.2694
   -37.2691 -37.2681 -37.2678 -37.2670 -37.2642 -37.2637 -37.2636 -37.2596
   -37.2595 -37.2571 -37.2447 -37.2402 -37.2401 -37.2307 -37.2304 -37.2278
   -37.2180 -37.2176 -37.2164 -37.2163 -37.2160 -37.2160 -37.2141 -37.2139
   -37.2126 -37.2119 -37.2118 -37.2117 -37.2115 -37.2114 -37.2112 -37.2110
   -37.2107 -37.2099 -37.2091 -37.2088 -37.2084 -37.2081 -37.2059 -37.2053
   -37.2053 -37.2047 -37.2033 -37.2032 -37.2025 -37.2023 -37.2019 -37.2014
   -37.2007 -37.1991 -37.1974 -37.1969 -37.1968 -37.1966 -37.1962 -37.1960
   -37.1946 -37.1944 -37.1931 -37.1928 -37.1926 -37.1919 -37.1918 -37.1913
   -37.1793 -37.1785 -37.1784 -37.1780 -37.1780 -37.1776 -37.1372 -37.1370
   -37.1367 -37.1366 -37.1361 -37.1358 -36.3119 -36.3119 -36.3116 -36.3115
   -36.3114 -36.3110 -36.2932 -36.2931 -36.2928 -36.2758 -36.2751 -36.2526
   -36.2222 -36.2219 -36.2218 -36.2216 -36.2214 -36.2214 -36.2211 -36.2210
   -36.2208 -36.2208 -36.2207 -36.2205 -36.2144 -36.2144 -36.2141 -36.1923
   -36.1920 -36.1920 -36.1916 -36.1833 -36.1833 -36.1829 -36.1822 -36.1821
   -36.0723 -36.0722 -36.0718 -36.0718 -36.0717 -36.0714 -36.0707 -36.0707
   -36.0706 -36.0703 -36.0702 -36.0700 -36.0523 -36.0523 -36.0521 -36.0422
   -36.0422 -36.0419 -36.0401 -36.0399 -36.0395 -36.0395 -36.0394 -36.0391
   -36.0387 -36.0379 -36.0367 -36.0341 -36.0340 -36.0337 -36.0262 -36.0260
   -36.0258 -36.0257 -36.0254 -36.0253 -36.0246 -36.0232 -36.0232 -36.0228
   -36.0223 -36.0223 -36.0221 -36.0216 -36.0215 -36.0213 -36.0193 -36.0193
   -36.0190 -36.0134 -36.0134 -36.0132 -36.0096 -36.0095 -36.0091 -36.0041
   -35.9998 -35.9966 -35.9962 -35.9919 -35.9915 -35.9881 -35.9877 -35.9751
   -35.9750 -35.9746 -35.9275 -35.9200 -35.9199 -35.8929 -35.8928 -35.8721
     3.5172   3.8484   3.8705   3.8838   4.1847   4.3554   4.3838   4.4030
     4.8402   5.0533   5.0959   5.1159   5.2664   5.2713   5.2741   5.2851
     5.2875   5.3337   5.3507   5.3544   5.3713   5.3902   5.4585   5.5334
     5.5628   5.5816   5.6048   5.6151   5.7190   5.7229   5.7316   5.7366
     5.9650   5.9652   6.1824   6.1854   8.1411   9.6558   9.7998   9.8044
     9.8646   9.9235   9.9351  10.0387  10.0506  10.0572  10.0625  10.0655
    10.0678  10.0849  10.0942  10.1109  10.3458  10.3645  10.3795  10.3829
    10.3841  10.3861  10.4002  10.4137  10.5215  10.5288  10.9436  10.9447
    10.9545  10.9799  11.0778  11.0970  11.1057  11.4281  11.4328  11.4567
    11.4621  11.5158  11.5180  11.6103  11.7098  11.7125  11.7257  11.7455
    11.7482  11.7520  11.7526  11.7528  11.7915  11.8446  11.8466  11.8645
    11.8724  11.8797  11.8904  11.9012  12.0621  12.0713  12.1409  12.1410
    12.1468  12.1617  12.1729  12.1743  12.1879  12.1930  12.1960  12.1967
    12.2142  12.2211  12.2284  12.2289  12.2449  12.2479  12.2636  12.2689
    12.2800  12.2865  12.3066  12.3080  12.3128  12.3154  12.3648  12.3707
    12.3751  12.3849  12.3855  12.3868  12.5353  12.5380  12.6930  12.7045
    12.7086  12.7158  12.7220  12.7272  12.7284  12.7305  12.7372  12.7465
    12.9597  12.9617  12.9662  12.9738  12.9775  12.9801  12.9885  13.0081
    13.4983  13.5689  13.5720  13.5990  13.5999  13.6056  13.6205  13.6570
    13.6633  13.6793  13.6849  13.6859  13.6986  13.7310  13.7399  13.7473
    13.7577  13.7690  13.7743  13.7837  13.8003  13.8035  13.8170  13.8238
    13.8273  13.8419  13.8534  13.8567  13.8608  13.8655  13.8730  13.8744
    13.8832  13.8866  13.9367  13.9407  13.9470  13.9535  13.9557  13.9702
    13.9733  13.9739  13.9793  13.9824  13.9841  13.9843  13.9876  14.0097
    14.0538  14.0664  14.0741  14.0748  14.0778  14.0852  14.1010  14.1154
    14.1246  14.1325  14.1387  14.1443  14.1457  14.1620  14.1630  14.1661
    14.1896  14.1937  14.2047  14.2159  14.2367  14.2496  14.2835  14.2843
    14.2845  14.3058  14.3119  14.3154  14.3619  14.3684  14.3702  14.3760
    14.4887  14.5046  14.5091  14.5112  14.8054  14.8070  14.8115  14.8236
    14.8876  14.8912  14.8963  14.9019  14.9146  14.9368  14.9457  14.9512
    14.9651  14.9790  14.9828  14.9888  14.9936  15.0045  15.0160  15.0186
    15.0229  15.0249  15.0281  15.0343  15.0353  15.0385  15.0416  15.0448
    15.0473  15.0553  15.0574  15.0624  15.0627  15.0745  15.0749  15.0806
    15.0848  15.0865  15.0896  15.1011  15.1013  15.1040  15.1181  15.1210
    15.1269  15.1287  15.1309  15.1316  15.1841  15.1852  15.1853  15.1920
    15.2189  15.2312  15.2472  15.2566  15.3163  15.3196  15.3202  15.3216
    15.3581  15.3679  15.3724  15.3783  15.3811  15.3824  15.3830  15.3911
    15.3915  15.3925  15.4003  15.4050  15.4710  15.4786  15.4880  15.4933
    15.5155  15.5231  15.5301  15.5316  15.5369  15.5436  15.5474  15.5502
    15.5527  15.5542  15.5607  15.5658  15.6158  15.6219  15.6360  15.6399
    15.6882  15.7005  15.7005  15.7069  15.7246  15.7284  15.7325  15.7400
    15.8165  15.8242  15.8280  15.8372  15.8582  15.8609  15.8686  15.8698
    15.8757  15.8764  15.8840  15.8924  15.8945  15.8952  15.8983  15.9079
    15.9104  15.9252  15.9420  15.9471  15.9563  15.9628  15.9692  15.9728
    16.0075  16.0082  16.0131  16.0263  16.0284  16.0368  16.0412  16.0485
    16.0485  16.0559  16.0562  16.0623  16.0860  16.0997  16.1631  16.1694
    16.1975  16.1985  16.2044  16.2059  16.2158  16.2359  16.2448  16.2627
    16.2646  16.2657  16.2673  16.2725  16.2726  16.2746  16.2784  16.2888
    16.3895  16.4145  16.4196  16.4353  16.4405  16.4416  16.4960  16.4961
    16.5043  16.5123  16.5383  16.5468  16.5631  16.5641  16.5672  16.5748
    16.5897  16.5899  16.5949  16.6204  16.6385  16.6647  16.6726  16.6771
    16.6873  16.6969  16.6972  16.7022  16.7210  16.7242  16.7357  16.7455
    16.8162  16.8183  16.8201  16.8294  16.9075  16.9140  16.9232  16.9251
    16.9261  16.9343  16.9363  16.9423  17.1382  17.1543  17.1611  17.1668
    17.3037  17.3039  17.3170  17.3457  17.7520  17.7715  17.7754  17.7772
    17.7810  17.7889  17.8579  17.8738  17.8790  17.8872  18.0360  18.0394
    18.0910  18.0930  18.3295  18.3481  18.3692  18.3804  18.4296  18.4310
    18.4370  18.4624  18.5195  18.5261  18.7314  18.7458  18.7656  18.7670
    18.7802  18.8431  18.8483  18.8860  18.8903  18.8949  18.9355  18.9432
    18.9586  18.9644  18.9818  18.9886  18.9891  19.0083  19.0563  19.0652
    19.1702  19.2065  19.2346  19.2384  19.3000  19.3124  19.3151  19.3388
    19.3460  19.3471  19.6017  19.6425  19.6576  19.6650  19.8260  19.8445
    19.8677  19.8802  20.0035  20.0096  20.0153  20.0180  20.0659  20.0857
    20.5342  20.5801  20.7135  20.7286  21.0859  21.1057  21.8244  22.0521

     occupation numbers 
     1.0000   1.0000   1.0000   1.0000   1.0000   1.0000   1.0000   1.0000
     1.0000   1.0000   1.0000   1.0000   1.0000   1.0000   1.0000   1.0000
     1.0000   1.0000   1.0000   1.0000   1.0000   1.0000   1.0000   1.0000
     1.0000   1.0000   1.0000   1.0000   1.0000   1.0000   1.0000   1.0000
     1.0000   1.0000   1.0000   1.0000   1.0000   1.0000   1.0000   1.0000
     1.0000   1.0000   1.0000   1.0000   1.0000   1.0000   1.0000   1.0000
     1.0000   1.0000   1.0000   1.0000   1.0000   1.0000   1.0000   1.0000
     1.0000   1.0000   1.0000   1.0000   1.0000   1.0000   1.0000   1.0000
     1.0000   1.0000   1.0000   1.0000   1.0000   1.0000   1.0000   1.0000
     1.0000   1.0000   1.0000   1.0000   1.0000   1.0000   1.0000   1.0000
     1.0000   1.0000   1.0000   1.0000   1.0000   1.0000   1.0000   1.0000
     1.0000   1.0000   1.0000   1.0000   1.0000   1.0000   1.0000   1.0000
     1.0000   1.0000   1.0000   1.0000   1.0000   1.0000   1.0000   1.0000
     1.0000   1.0000   1.0000   1.0000   1.0000   1.0000   1.0000   1.0000
     1.0000   1.0000   1.0000   1.0000   1.0000   1.0000   1.0000   1.0000
     1.0000   1.0000   1.0000   1.0000   1.0000   1.0000   1.0000   1.0000
     1.0000   1.0000   1.0000   1.0000   1.0000   1.0000   1.0000   1.0000
     1.0000   1.0000   1.0000   1.0000   1.0000   1.0000   1.0000   1.0000
     1.0000   1.0000   1.0000   1.0000   1.0000   1.0000   1.0000   1.0000
     1.0000   1.0000   1.0000   1.0000   1.0000   1.0000   1.0000   1.0000
     1.0000   1.0000   1.0000   1.0000   1.0000   1.0000   1.0000   1.0000
     1.0000   1.0000   1.0000   1.0000   1.0000   1.0000   1.0000   1.0000
     1.0000   1.0000   1.0000   1.0000   1.0000   1.0000   1.0000   1.0000
     1.0000   1.0000   1.0000   1.0000   1.0000   1.0000   1.0000   1.0000
     1.0000   1.0000   1.0000   1.0000   1.0000   1.0000   1.0000   1.0000
     1.0000   1.0000   1.0000   1.0000   1.0000   1.0000   1.0000   1.0000
     1.0000   1.0000   1.0000   1.0000   1.0000   1.0000   1.0000   1.0000
     1.0000   1.0000   1.0000   1.0000   1.0000   1.0000   1.0000   1.0000
     1.0000   1.0000   1.0000   1.0000   1.0000   1.0000   1.0000   1.0000
     1.0000   1.0000   1.0000   1.0000   1.0000   1.0000   1.0000   1.0000
     1.0000   1.0000   1.0000   1.0000   1.0000   1.0000   1.0000   1.0000
     1.0000   1.0000   1.0000   1.0000   1.0000   1.0000   1.0000   1.0000
     1.0000   1.0000   1.0000   1.0000   1.0000   1.0000   1.0000   1.0000
     1.0000   1.0000   1.0000   1.0000   1.0000   1.0000   1.0000   1.0000
     1.0000   1.0000   1.0000   1.0000   1.0000   1.0000   1.0000   1.0000
     1.0000   1.0000   1.0000   1.0000   1.0000   1.0000   1.0000   1.0000
     1.0000   1.0000   1.0000   1.0000   1.0000   1.0000   1.0000   1.0000
     1.0000   1.0000   1.0000   1.0000   1.0000   1.0000   1.0000   1.0000
     1.0000   1.0000   1.0000   1.0000   1.0000   1.0000   1.0000   1.0000
     1.0000   1.0000   1.0000   1.0000   1.0000   1.0000   1.0000   1.0000
     1.0000   1.0000   1.0000   1.0000   1.0000   1.0000   1.0000   1.0000
     1.0000   1.0000   1.0000   1.0000   1.0000   1.0000   1.0000   1.0000
     1.0000   1.0000   1.0000   1.0000   1.0000   1.0000   1.0000   1.0000
     1.0000   1.0000   1.0000   1.0000   1.0000   1.0000   1.0000   1.0000
     1.0000   1.0000   1.0000   1.0000   1.0000   1.0000   1.0000   1.0000
     1.0000   1.0000   1.0000   1.0000   1.0000   1.0000   1.0000   1.0000
     1.0000   1.0000   1.0000   1.0000   1.0000   1.0000   1.0000   1.0000
     1.0000   1.0000   1.0000   1.0000   1.0000   1.0000   1.0000   1.0000
     1.0000   1.0000   1.0000   1.0000   1.0000   1.0000   1.0000   1.0000
     1.0000   1.0000   1.0000   1.0000   1.0000   1.0000   1.0000   1.0000
     1.0000   1.0000   1.0000   1.0000   1.0000   1.0000   1.0000   1.0000
     1.0000   1.0000   1.0000   1.0000   1.0000   1.0000   1.0000   1.0000
     1.0000   1.0000   1.0000   1.0000   1.0000   1.0000   1.0000   1.0000
     1.0000   1.0000   1.0000   1.0000   1.0000   1.0000   1.0000   1.0000
     1.0000   1.0000   1.0000   1.0000   1.0000   1.0000   1.0000   1.0000
     1.0000   1.0000   1.0000   1.0000   1.0000   1.0000   1.0000   1.0000
     1.0000   1.0000   1.0000   1.0000   1.0000   1.0000   1.0000   1.0000
     1.0000   1.0000   1.0000   1.0000   1.0000   1.0000   1.0000   1.0000
     1.0000   1.0000   1.0000   1.0000   1.0000   1.0000   1.0000   1.0000
     1.0000   1.0000   1.0000   1.0000   1.0000   1.0000   1.0000   1.0000
     1.0000   1.0000   1.0000   1.0000   1.0000   1.0000   1.0000   1.0000
     1.0000   1.0000   1.0000   1.0000   1.0000   1.0000   1.0000   1.0000
     1.0000   1.0000   1.0000   1.0000   1.0000   1.0000   1.0000   1.0000
     1.0000   1.0000   1.0000   1.0000   1.0000   1.0000   1.0000   1.0000
     1.0000   1.0000   1.0000   1.0000   1.0000   1.0000   1.0000   1.0000
     1.0000   1.0000   1.0000   1.0000   1.0000   1.0000   1.0000   1.0000
     1.0000   1.0000   1.0000   1.0000   1.0000   1.0000   1.0000   1.0000
     1.0000   1.0000   1.0000   1.0000   1.0000   1.0000   1.0000   1.0000
     1.0000   1.0000   1.0000   1.0000   1.0000   1.0000   1.0000   1.0000
     1.0000   1.0000   1.0000   1.0000   1.0000   1.0000   1.0000   1.0000
     1.0000   1.0000   1.0000   1.0000   1.0000   1.0000   1.0000   1.0000
     1.0000   1.0000   1.0000   1.0000   1.0000   1.0000   1.0000   1.0000
     1.0000   1.0000   1.0000   1.0000   1.0000   1.0000   1.0000   1.0000
     1.0000   1.0000   1.0000   1.0000   1.0000   1.0000   1.0000   1.0000
     1.0000   1.0000   1.0000   1.0000   1.0000   1.0000   1.0000   1.0000
     1.0000   1.0000   1.0000   1.0000   1.0000   1.0000   1.0000   1.0000
     1.0000   1.0000   1.0000   1.0000   1.0000   1.0000   1.0000   1.0000
     1.0000   1.0000   1.0000   1.0000   1.0000   1.0000   1.0000   1.0000
     1.0000   1.0000   1.0000   1.0000   1.0000   1.0000   1.0000   1.0000
     1.0000   1.0000   1.0000   1.0000   1.0000   1.0000   1.0000   1.0000
     1.0000   1.0000   1.0000   1.0000   1.0000   1.0000   1.0000   1.0000
     1.0000   1.0000   1.0000   1.0000   1.0000   1.0000   1.0000   1.0000
     1.0000   1.0000   1.0000   1.0000   1.0000   1.0000   1.0000   1.0000
     1.0000   1.0000   1.0000   1.0000   1.0000   1.0000   1.0000   1.0000
     1.0000   1.0000   1.0000   1.0000   1.0000   1.0000   0.9999   0.9999
     0.9999   0.9999   0.9998   0.9997   0.9996   0.9996   0.9996   0.9995
     0.9994   0.9994   0.9993   0.9989   0.9985   0.9977   0.9974   0.9972
     0.9967   0.9962   0.9961   0.9958   0.9945   0.9942   0.9931   0.9921
     0.9796   0.9790   0.9786   0.9760   0.9419   0.9378   0.9317   0.9304
     0.9298   0.9238   0.9223   0.9177   0.6449   0.6134   0.5996   0.5881
     0.3126   0.3123   0.2886   0.2398   0.0024   0.0018   0.0016   0.0016
     0.0015   0.0013   0.0004   0.0003   0.0003   0.0002   0.0000   0.0000
     0.0000   0.0000   0.0000   0.0000   0.0000   0.0000   0.0000   0.0000
     0.0000   0.0000   0.0000   0.0000   0.0000   0.0000   0.0000   0.0000
     0.0000   0.0000   0.0000   0.0000   0.0000   0.0000   0.0000   0.0000
     0.0000   0.0000   0.0000   0.0000   0.0000   0.0000   0.0000   0.0000
     0.0000   0.0000   0.0000   0.0000   0.0000   0.0000   0.0000   0.0000
     0.0000   0.0000   0.0000   0.0000   0.0000   0.0000   0.0000   0.0000
     0.0000   0.0000   0.0000   0.0000   0.0000   0.0000   0.0000   0.0000
     0.0000   0.0000   0.0000   0.0000   0.0000   0.0000   0.0000   0.0000

          k = 0.2500 0.4330 0.0000 (100652 PWs)   bands (ev):

   -71.2187 -71.2182 -71.2181 -71.2132 -71.2132 -71.2131 -71.1728 -71.1728
   -71.1720 -71.1719 -71.1718 -71.1718 -71.1717 -71.1717 -71.1717 -71.1716
   -71.1715 -71.1715 -71.1699 -71.1698 -71.1697 -71.1696 -71.1687 -71.1687
   -71.1686 -71.1685 -71.1685 -71.1685 -71.1684 -71.1683 -71.1282 -71.1280
   -71.1277 -71.1277 -71.1275 -71.1275 -70.0223 -70.0223 -70.0222 -70.0222
   -70.0221 -70.0220 -70.0105 -70.0104 -70.0103 -70.0103 -70.0103 -70.0102
   -70.0099 -70.0099 -70.0098 -70.0098 -70.0096 -70.0095 -70.0074 -70.0074
   -70.0072 -69.9988 -69.9988 -69.9986 -69.9818 -69.9816 -69.9712 -69.9711
   -69.9708 -69.9706 -69.9648 -69.9648 -69.9643 -69.8969 -69.8899 -69.8898
   -37.3523 -37.3518 -37.3515 -37.3455 -37.3455 -37.3454 -37.3084 -37.3082
   -37.3080 -37.3072 -37.3070 -37.3057 -37.3054 -37.3052 -37.3050 -37.3040
   -37.3040 -37.3038 -37.3038 -37.3037 -37.3025 -37.3020 -37.3018 -37.3015
   -37.2988 -37.2988 -37.2962 -37.2961 -37.2959 -37.2958 -37.2703 -37.2694
   -37.2691 -37.2683 -37.2680 -37.2669 -37.2641 -37.2636 -37.2635 -37.2596
   -37.2596 -37.2571 -37.2447 -37.2402 -37.2401 -37.2307 -37.2304 -37.2278
   -37.2180 -37.2177 -37.2165 -37.2163 -37.2160 -37.2158 -37.2141 -37.2139
   -37.2125 -37.2121 -37.2119 -37.2119 -37.2115 -37.2114 -37.2113 -37.2110
   -37.2107 -37.2100 -37.2093 -37.2091 -37.2081 -37.2079 -37.2057 -37.2052
   -37.2048 -37.2045 -37.2040 -37.2035 -37.2031 -37.2024 -37.2022 -37.2014
   -37.1996 -37.1988 -37.1978 -37.1972 -37.1970 -37.1965 -37.1962 -37.1960
   -37.1943 -37.1942 -37.1932 -37.1928 -37.1924 -37.1920 -37.1919 -37.1914
   -37.1793 -37.1786 -37.1783 -37.1781 -37.1779 -37.1777 -37.1372 -37.1370
   -37.1367 -37.1366 -37.1361 -37.1358 -36.3120 -36.3118 -36.3116 -36.3115
   -36.3113 -36.3110 -36.2932 -36.2931 -36.2928 -36.2758 -36.2751 -36.2526
   -36.2223 -36.2219 -36.2218 -36.2216 -36.2215 -36.2214 -36.2212 -36.2209
   -36.2208 -36.2207 -36.2207 -36.2205 -36.2144 -36.2144 -36.2142 -36.1924
   -36.1920 -36.1920 -36.1916 -36.1834 -36.1833 -36.1829 -36.1822 -36.1821
   -36.0724 -36.0721 -36.0718 -36.0718 -36.0718 -36.0714 -36.0707 -36.0707
   -36.0706 -36.0704 -36.0702 -36.0701 -36.0523 -36.0523 -36.0521 -36.0423
   -36.0422 -36.0419 -36.0401 -36.0398 -36.0396 -36.0396 -36.0393 -36.0392
   -36.0381 -36.0373 -36.0365 -36.0347 -36.0345 -36.0343 -36.0262 -36.0258
   -36.0257 -36.0255 -36.0253 -36.0250 -36.0244 -36.0235 -36.0235 -36.0228
   -36.0226 -36.0222 -36.0220 -36.0220 -36.0218 -36.0216 -36.0193 -36.0192
   -36.0189 -36.0133 -36.0133 -36.0131 -36.0097 -36.0095 -36.0091 -36.0041
   -35.9999 -35.9966 -35.9962 -35.9918 -35.9915 -35.9881 -35.9878 -35.9751
   -35.9750 -35.9746 -35.9275 -35.9200 -35.9199 -35.8929 -35.8928 -35.8721
     3.3702   3.6693   3.8109   4.2180   4.5310   4.5323   4.6221   4.6836
     4.7354   4.7788   4.7820   4.9182   5.0027   5.0767   5.1763   5.1942
     5.2792   5.3711   5.3887   5.4027   5.4071   5.5298   5.5359   5.5864
     5.5876   5.5960   5.6119   5.6430   5.6637   5.6649   5.8836   5.8863
     5.9028   5.9043   6.0467   6.0665   8.3201   9.7587   9.7699   9.9211
     9.9338   9.9507  10.0149  10.1191  10.1231  10.1471  10.1569  10.1822
    10.1883  10.2908  10.3340  10.4387  10.4745  10.4963  10.5082  10.5172
    10.5215  10.5294  10.5323  10.5802  10.5861  10.6095  10.6623  10.7693
    10.7751  10.7777  10.7837  10.9061  10.9232  11.0400  11.1912  11.1967
    11.2766  11.2807  11.3299  11.3305  11.3422  11.3533  11.4943  11.5698
    11.6023  11.7247  11.7272  11.7466  11.7575  11.7592  11.7611  11.7891
    11.7947  11.8270  11.8311  11.8371  11.8734  11.9768  11.9789  11.9982
    12.0066  12.0167  12.0181  12.1617  12.1682  12.2169  12.2281  12.2435
    12.2439  12.2445  12.2455  12.3089  12.3356  12.3393  12.3492  12.3633
    12.4083  12.4275  12.4415  12.4429  12.4472  12.4716  12.5108  12.5184
    12.5349  12.5491  12.5520  12.5581  12.5624  12.5649  12.5703  12.6285
    12.6331  12.6988  12.7094  12.7136  12.7232  12.8214  12.8448  12.8628
    13.0142  13.0142  13.0202  13.0424  13.0512  13.0745  13.3060  13.4572
    13.4615  13.4716  13.5547  13.5865  13.6043  13.6220  13.6264  13.6326
    13.6488  13.6538  13.6722  13.6735  13.6845  13.7074  13.7385  13.7411
    13.7573  13.7579  13.7699  13.7868  13.7979  13.8068  13.8128  13.8257
    13.8348  13.8393  13.8456  13.8640  13.8835  13.8882  13.8901  13.8949
    13.9131  13.9263  13.9347  13.9378  13.9533  13.9536  13.9591  13.9663
    13.9666  13.9715  13.9861  13.9875  14.0092  14.0172  14.0420  14.0530
    14.0543  14.0587  14.0595  14.0708  14.0796  14.0917  14.1028  14.1076
    14.1199  14.1327  14.1604  14.1627  14.1671  14.1700  14.1749  14.1811
    14.1847  14.1924  14.2444  14.2474  14.2478  14.2525  14.2531  14.2612
    14.2632  14.2709  14.2724  14.2947  14.2952  14.3049  14.3580  14.3661
    14.5427  14.6516  14.6925  14.7265  14.7276  14.7391  14.7397  14.7413
    14.7503  14.7905  14.8250  14.8360  14.8472  14.8485  14.8560  14.8747
    14.8842  14.8971  14.9012  14.9098  14.9119  14.9120  14.9172  14.9498
    14.9563  14.9903  14.9921  15.0014  15.0073  15.0151  15.0248  15.0298
    15.0325  15.0381  15.0575  15.0752  15.0771  15.0788  15.0822  15.0892
    15.1238  15.1397  15.1563  15.1655  15.1749  15.1849  15.1875  15.1898
    15.1914  15.1964  15.2022  15.2044  15.2074  15.2171  15.2683  15.2904
    15.3030  15.3042  15.3047  15.3070  15.3117  15.3121  15.3132  15.3168
    15.3292  15.3387  15.3481  15.3653  15.3751  15.3760  15.3799  15.3817
    15.3827  15.3853  15.3856  15.3935  15.4163  15.4315  15.4403  15.4415
    15.4490  15.4502  15.4533  15.4565  15.5470  15.5518  15.5541  15.5566
    15.6039  15.6158  15.6261  15.6288  15.6316  15.6693  15.6739  15.6779
    15.6862  15.6949  15.7011  15.7145  15.7147  15.7235  15.7354  15.7509
    15.7515  15.7609  15.7668  15.7744  15.7850  15.7995  15.8076  15.8195
    15.8306  15.8333  15.8394  15.8587  15.8790  15.9217  15.9612  15.9694
    15.9706  15.9810  15.9816  15.9836  16.0017  16.0028  16.0049  16.0075
    16.0435  16.0543  16.0704  16.0766  16.0907  16.1038  16.1130  16.1136
    16.1166  16.1210  16.1432  16.1438  16.1540  16.1634  16.1645  16.1659
    16.1856  16.1971  16.1992  16.2026  16.2386  16.2480  16.2493  16.2663
    16.2697  16.2758  16.2783  16.2867  16.2903  16.2934  16.3464  16.3578
    16.3672  16.3683  16.3857  16.5004  16.5023  16.5150  16.5194  16.5225
    16.5260  16.5396  16.5449  16.5467  16.5573  16.5589  16.5634  16.5661
    16.5719  16.5820  16.5947  16.6020  16.6048  16.6058  16.6149  16.6274
    16.6631  16.6964  16.7053  16.7174  16.7406  16.7439  16.7558  16.7559
    16.7563  16.7666  16.7716  16.7989  16.8054  16.8091  16.8119  16.8163
    16.8458  16.8590  16.8696  16.8732  16.9178  16.9274  16.9465  16.9561
    17.2802  17.5980  17.7267  17.7304  17.8113  17.8196  17.8375  17.8392
    17.9296  17.9454  17.9458  17.9467  17.9494  17.9589  18.0125  18.0179
    18.0357  18.0396  18.0477  18.0523  18.1128  18.1250  18.2275  18.2350
    18.4828  18.4836  18.5289  18.5473  18.5530  18.5601  18.5676  18.5746
    18.6833  18.8209  18.8243  18.8279  18.8369  18.8737  19.0747  19.1058
    19.1151  19.2236  19.2313  19.2377  19.2504  19.2600  19.2660  19.2708
    19.2724  19.3742  19.3873  19.4495  19.4577  19.4640  19.4661  19.4733
    19.4836  19.4876  19.4891  19.7400  19.8102  19.8109  19.8112  19.8182
    19.8878  19.9022  19.9024  20.2235  20.2679  20.3606  20.4401  20.6011
    20.7411  20.8966  20.9764  20.9896  21.0029  21.0032  21.0432  21.0526

     occupation numbers 
     1.0000   1.0000   1.0000   1.0000   1.0000   1.0000   1.0000   1.0000
     1.0000   1.0000   1.0000   1.0000   1.0000   1.0000   1.0000   1.0000
     1.0000   1.0000   1.0000   1.0000   1.0000   1.0000   1.0000   1.0000
     1.0000   1.0000   1.0000   1.0000   1.0000   1.0000   1.0000   1.0000
     1.0000   1.0000   1.0000   1.0000   1.0000   1.0000   1.0000   1.0000
     1.0000   1.0000   1.0000   1.0000   1.0000   1.0000   1.0000   1.0000
     1.0000   1.0000   1.0000   1.0000   1.0000   1.0000   1.0000   1.0000
     1.0000   1.0000   1.0000   1.0000   1.0000   1.0000   1.0000   1.0000
     1.0000   1.0000   1.0000   1.0000   1.0000   1.0000   1.0000   1.0000
     1.0000   1.0000   1.0000   1.0000   1.0000   1.0000   1.0000   1.0000
     1.0000   1.0000   1.0000   1.0000   1.0000   1.0000   1.0000   1.0000
     1.0000   1.0000   1.0000   1.0000   1.0000   1.0000   1.0000   1.0000
     1.0000   1.0000   1.0000   1.0000   1.0000   1.0000   1.0000   1.0000
     1.0000   1.0000   1.0000   1.0000   1.0000   1.0000   1.0000   1.0000
     1.0000   1.0000   1.0000   1.0000   1.0000   1.0000   1.0000   1.0000
     1.0000   1.0000   1.0000   1.0000   1.0000   1.0000   1.0000   1.0000
     1.0000   1.0000   1.0000   1.0000   1.0000   1.0000   1.0000   1.0000
     1.0000   1.0000   1.0000   1.0000   1.0000   1.0000   1.0000   1.0000
     1.0000   1.0000   1.0000   1.0000   1.0000   1.0000   1.0000   1.0000
     1.0000   1.0000   1.0000   1.0000   1.0000   1.0000   1.0000   1.0000
     1.0000   1.0000   1.0000   1.0000   1.0000   1.0000   1.0000   1.0000
     1.0000   1.0000   1.0000   1.0000   1.0000   1.0000   1.0000   1.0000
     1.0000   1.0000   1.0000   1.0000   1.0000   1.0000   1.0000   1.0000
     1.0000   1.0000   1.0000   1.0000   1.0000   1.0000   1.0000   1.0000
     1.0000   1.0000   1.0000   1.0000   1.0000   1.0000   1.0000   1.0000
     1.0000   1.0000   1.0000   1.0000   1.0000   1.0000   1.0000   1.0000
     1.0000   1.0000   1.0000   1.0000   1.0000   1.0000   1.0000   1.0000
     1.0000   1.0000   1.0000   1.0000   1.0000   1.0000   1.0000   1.0000
     1.0000   1.0000   1.0000   1.0000   1.0000   1.0000   1.0000   1.0000
     1.0000   1.0000   1.0000   1.0000   1.0000   1.0000   1.0000   1.0000
     1.0000   1.0000   1.0000   1.0000   1.0000   1.0000   1.0000   1.0000
     1.0000   1.0000   1.0000   1.0000   1.0000   1.0000   1.0000   1.0000
     1.0000   1.0000   1.0000   1.0000   1.0000   1.0000   1.0000   1.0000
     1.0000   1.0000   1.0000   1.0000   1.0000   1.0000   1.0000   1.0000
     1.0000   1.0000   1.0000   1.0000   1.0000   1.0000   1.0000   1.0000
     1.0000   1.0000   1.0000   1.0000   1.0000   1.0000   1.0000   1.0000
     1.0000   1.0000   1.0000   1.0000   1.0000   1.0000   1.0000   1.0000
     1.0000   1.0000   1.0000   1.0000   1.0000   1.0000   1.0000   1.0000
     1.0000   1.0000   1.0000   1.0000   1.0000   1.0000   1.0000   1.0000
     1.0000   1.0000   1.0000   1.0000   1.0000   1.0000   1.0000   1.0000
     1.0000   1.0000   1.0000   1.0000   1.0000   1.0000   1.0000   1.0000
     1.0000   1.0000   1.0000   1.0000   1.0000   1.0000   1.0000   1.0000
     1.0000   1.0000   1.0000   1.0000   1.0000   1.0000   1.0000   1.0000
     1.0000   1.0000   1.0000   1.0000   1.0000   1.0000   1.0000   1.0000
     1.0000   1.0000   1.0000   1.0000   1.0000   1.0000   1.0000   1.0000
     1.0000   1.0000   1.0000   1.0000   1.0000   1.0000   1.0000   1.0000
     1.0000   1.0000   1.0000   1.0000   1.0000   1.0000   1.0000   1.0000
     1.0000   1.0000   1.0000   1.0000   1.0000   1.0000   1.0000   1.0000
     1.0000   1.0000   1.0000   1.0000   1.0000   1.0000   1.0000   1.0000
     1.0000   1.0000   1.0000   1.0000   1.0000   1.0000   1.0000   1.0000
     1.0000   1.0000   1.0000   1.0000   1.0000   1.0000   1.0000   1.0000
     1.0000   1.0000   1.0000   1.0000   1.0000   1.0000   1.0000   1.0000
     1.0000   1.0000   1.0000   1.0000   1.0000   1.0000   1.0000   1.0000
     1.0000   1.0000   1.0000   1.0000   1.0000   1.0000   1.0000   1.0000
     1.0000   1.0000   1.0000   1.0000   1.0000   1.0000   1.0000   1.0000
     1.0000   1.0000   1.0000   1.0000   1.0000   1.0000   1.0000   1.0000
     1.0000   1.0000   1.0000   1.0000   1.0000   1.0000   1.0000   1.0000
     1.0000   1.0000   1.0000   1.0000   1.0000   1.0000   1.0000   1.0000
     1.0000   1.0000   1.0000   1.0000   1.0000   1.0000   1.0000   1.0000
     1.0000   1.0000   1.0000   1.0000   1.0000   1.0000   1.0000   1.0000
     1.0000   1.0000   1.0000   1.0000   1.0000   1.0000   1.0000   1.0000
     1.0000   1.0000   1.0000   1.0000   1.0000   1.0000   1.0000   1.0000
     1.0000   1.0000   1.0000   1.0000   1.0000   1.0000   1.0000   1.0000
     1.0000   1.0000   1.0000   1.0000   1.0000   1.0000   1.0000   1.0000
     1.0000   1.0000   1.0000   1.0000   1.0000   1.0000   1.0000   1.0000
     1.0000   1.0000   1.0000   1.0000   1.0000   1.0000   1.0000   1.0000
     1.0000   1.0000   1.0000   1.0000   1.0000   1.0000   1.0000   1.0000
     1.0000   1.0000   1.0000   1.0000   1.0000   1.0000   1.0000   1.0000
     1.0000   1.0000   1.0000   1.0000   1.0000   1.0000   1.0000   1.0000
     1.0000   1.0000   1.0000   1.0000   1.0000   1.0000   1.0000   1.0000
     1.0000   1.0000   1.0000   1.0000   1.0000   1.0000   1.0000   1.0000
     1.0000   1.0000   1.0000   1.0000   1.0000   1.0000   1.0000   1.0000
     1.0000   1.0000   1.0000   1.0000   1.0000   1.0000   1.0000   1.0000
     1.0000   1.0000   1.0000   1.0000   1.0000   1.0000   1.0000   1.0000
     1.0000   1.0000   1.0000   1.0000   1.0000   1.0000   1.0000   1.0000
     1.0000   1.0000   1.0000   1.0000   1.0000   1.0000   1.0000   1.0000
     1.0000   1.0000   1.0000   1.0000   1.0000   1.0000   1.0000   1.0000
     1.0000   1.0000   1.0000   1.0000   1.0000   1.0000   1.0000   1.0000
     1.0000   1.0000   1.0000   1.0000   1.0000   1.0000   1.0000   1.0000
     1.0000   1.0000   1.0000   1.0000   1.0000   1.0000   1.0000   1.0000
     1.0000   1.0000   1.0000   1.0000   1.0000   1.0000   1.0000   1.0000
     1.0000   1.0000   1.0000   1.0000   1.0000   1.0000   1.0000   1.0000
     1.0000   1.0000   1.0000   1.0000   1.0000   1.0000   1.0000   1.0000
     1.0000   1.0000   1.0000   1.0000   1.0000   1.0000   1.0000   1.0000
     1.0000   1.0000   1.0000   0.9999   0.9999   0.9998   0.9998   0.9998
     0.9998   0.9998   0.9997   0.9997   0.9997   0.9996   0.9996   0.9996
     0.9995   0.9994   0.9993   0.9992   0.9992   0.9992   0.9990   0.9988
     0.9977   0.9962   0.9956   0.9947   0.9926   0.9923   0.9908   0.9908
     0.9908   0.9894   0.9886   0.9836   0.9822   0.9813   0.9806   0.9796
     0.9707   0.9658   0.9614   0.9598   0.9354   0.9288   0.9143   0.9063
     0.3571   0.0218   0.0036   0.0034   0.0009   0.0008   0.0006   0.0005
     0.0001   0.0001   0.0001   0.0001   0.0001   0.0000   0.0000   0.0000
     0.0000   0.0000   0.0000   0.0000   0.0000   0.0000   0.0000   0.0000
     0.0000   0.0000   0.0000   0.0000   0.0000   0.0000   0.0000   0.0000
     0.0000   0.0000   0.0000   0.0000   0.0000   0.0000   0.0000   0.0000
     0.0000   0.0000   0.0000   0.0000   0.0000   0.0000   0.0000   0.0000
     0.0000   0.0000   0.0000   0.0000   0.0000   0.0000   0.0000   0.0000
     0.0000   0.0000   0.0000   0.0000   0.0000   0.0000   0.0000   0.0000
     0.0000   0.0000   0.0000   0.0000   0.0000   0.0000   0.0000   0.0000
     0.0000   0.0000   0.0000   0.0000   0.0000   0.0000   0.0000   0.0000

          k = 0.2500 0.4330 0.2850 (100562 PWs)   bands (ev):

   -71.2187 -71.2182 -71.2181 -71.2132 -71.2132 -71.2131 -71.1728 -71.1728
   -71.1720 -71.1719 -71.1718 -71.1718 -71.1717 -71.1717 -71.1717 -71.1716
   -71.1715 -71.1715 -71.1699 -71.1698 -71.1697 -71.1696 -71.1687 -71.1687
   -71.1686 -71.1685 -71.1685 -71.1685 -71.1684 -71.1683 -71.1282 -71.1280
   -71.1277 -71.1277 -71.1275 -71.1275 -70.0223 -70.0223 -70.0222 -70.0222
   -70.0221 -70.0220 -70.0105 -70.0104 -70.0103 -70.0103 -70.0103 -70.0102
   -70.0099 -70.0099 -70.0098 -70.0098 -70.0096 -70.0095 -70.0074 -70.0074
   -70.0072 -69.9988 -69.9988 -69.9986 -69.9818 -69.9816 -69.9712 -69.9711
   -69.9708 -69.9706 -69.9648 -69.9648 -69.9643 -69.8969 -69.8899 -69.8898
   -37.3523 -37.3518 -37.3515 -37.3455 -37.3455 -37.3454 -37.3083 -37.3081
   -37.3080 -37.3077 -37.3075 -37.3064 -37.3058 -37.3055 -37.3053 -37.3043
   -37.3041 -37.3040 -37.3030 -37.3029 -37.3011 -37.3008 -37.3007 -37.3005
   -37.2993 -37.2993 -37.2967 -37.2966 -37.2964 -37.2964 -37.2702 -37.2694
   -37.2691 -37.2682 -37.2679 -37.2669 -37.2641 -37.2637 -37.2636 -37.2596
   -37.2595 -37.2571 -37.2447 -37.2402 -37.2401 -37.2307 -37.2304 -37.2278
   -37.2179 -37.2176 -37.2165 -37.2163 -37.2160 -37.2159 -37.2141 -37.2138
   -37.2126 -37.2119 -37.2119 -37.2118 -37.2115 -37.2115 -37.2112 -37.2110
   -37.2107 -37.2100 -37.2093 -37.2091 -37.2080 -37.2079 -37.2057 -37.2051
   -37.2048 -37.2045 -37.2040 -37.2035 -37.2031 -37.2024 -37.2021 -37.2013
   -37.1997 -37.1987 -37.1979 -37.1971 -37.1970 -37.1965 -37.1962 -37.1960
   -37.1943 -37.1942 -37.1932 -37.1928 -37.1924 -37.1920 -37.1920 -37.1913
   -37.1793 -37.1786 -37.1783 -37.1781 -37.1778 -37.1777 -37.1372 -37.1370
   -37.1367 -37.1366 -37.1360 -37.1358 -36.3120 -36.3118 -36.3116 -36.3115
   -36.3113 -36.3110 -36.2932 -36.2931 -36.2928 -36.2758 -36.2751 -36.2526
   -36.2222 -36.2219 -36.2218 -36.2216 -36.2215 -36.2214 -36.2212 -36.2209
   -36.2208 -36.2207 -36.2207 -36.2205 -36.2144 -36.2144 -36.2142 -36.1923
   -36.1920 -36.1920 -36.1916 -36.1833 -36.1832 -36.1829 -36.1822 -36.1821
   -36.0724 -36.0721 -36.0718 -36.0718 -36.0717 -36.0714 -36.0707 -36.0706
   -36.0706 -36.0704 -36.0702 -36.0700 -36.0523 -36.0522 -36.0521 -36.0423
   -36.0421 -36.0419 -36.0401 -36.0398 -36.0396 -36.0395 -36.0393 -36.0391
   -36.0385 -36.0375 -36.0367 -36.0343 -36.0342 -36.0341 -36.0262 -36.0258
   -36.0258 -36.0257 -36.0253 -36.0252 -36.0246 -36.0232 -36.0232 -36.0230
   -36.0224 -36.0222 -36.0221 -36.0218 -36.0215 -36.0214 -36.0193 -36.0192
   -36.0189 -36.0133 -36.0133 -36.0131 -36.0097 -36.0095 -36.0091 -36.0041
   -35.9998 -35.9966 -35.9962 -35.9919 -35.9915 -35.9881 -35.9877 -35.9751
   -35.9750 -35.9746 -35.9275 -35.9200 -35.9199 -35.8929 -35.8928 -35.8721
     3.4260   3.7264   3.8790   4.0587   4.2579   4.3904   4.4525   4.6792
     4.8039   4.9521   5.0139   5.0531   5.0918   5.1213   5.1571   5.1831
     5.2847   5.3453   5.3861   5.4205   5.4388   5.4462   5.4588   5.5523
     5.6139   5.6259   5.6493   5.6568   5.6764   5.7176   5.7180   5.7889
     5.9086   6.0351   6.0377   6.1734   8.2249   9.7511   9.8217   9.8329
     9.9228   9.9592   9.9785  10.0110  10.0227  10.0801  10.1097  10.1724
    10.1822  10.1856  10.1914  10.2302  10.2359  10.2561  10.3971  10.4211
    10.4712  10.5244  10.5335  10.5531  10.6090  10.6221  10.7035  10.8355
    10.8495  10.8941  11.1078  11.1342  11.1479  11.2266  11.2307  11.2697
    11.3241  11.4147  11.4607  11.4608  11.4753  11.5281  11.5403  11.6107
    11.6447  11.6947  11.7458  11.7806  11.7965  11.8322  11.8500  11.8523
    11.8662  11.8694  11.8833  11.9213  11.9402  11.9696  12.0272  12.0305
    12.0415  12.0922  12.1055  12.1103  12.1181  12.1297  12.1390  12.1550
    12.1553  12.1911  12.2378  12.2779  12.2809  12.2973  12.3190  12.3217
    12.3407  12.3895  12.3983  12.4238  12.4339  12.4616  12.4707  12.4731
    12.4852  12.5136  12.5255  12.5475  12.5513  12.6315  12.6321  12.6424
    12.6555  12.6667  12.7213  12.7450  12.7783  12.8469  12.8522  12.8546
    12.8919  12.9112  12.9528  12.9569  13.0058  13.0410  13.1428  13.1725
    13.4879  13.5585  13.5938  13.6083  13.6228  13.6266  13.6354  13.6456
    13.6592  13.6693  13.6699  13.6771  13.6977  13.7006  13.7141  13.7295
    13.7330  13.7580  13.7666  13.7731  13.7795  13.7912  13.8270  13.8327
    13.8483  13.8548  13.8635  13.8638  13.8786  13.8818  13.8873  13.8897
    13.8974  13.9149  13.9202  13.9262  13.9407  13.9410  13.9474  13.9511
    13.9579  13.9611  13.9627  14.0136  14.0193  14.0294  14.0341  14.0459
    14.0644  14.0663  14.0734  14.0774  14.0853  14.0906  14.1009  14.1062
    14.1079  14.1224  14.1225  14.1363  14.1365  14.1532  14.1860  14.2029
    14.2046  14.2118  14.2197  14.2288  14.2330  14.2362  14.2386  14.2400
    14.2458  14.2768  14.3087  14.3183  14.3469  14.3747  14.3949  14.4030
    14.4769  14.5920  14.5936  14.5975  14.6909  14.7687  14.7791  14.8328
    14.8354  14.8398  14.8713  14.8854  14.8864  14.8954  14.8963  14.9097
    14.9152  14.9280  14.9433  14.9483  14.9502  14.9812  14.9821  14.9851
    14.9908  14.9960  14.9963  15.0042  15.0058  15.0155  15.0238  15.0310
    15.0379  15.0478  15.0591  15.0618  15.0664  15.0808  15.0919  15.0982
    15.1162  15.1170  15.1231  15.1238  15.1370  15.1401  15.1487  15.1635
    15.1690  15.1734  15.1846  15.1998  15.2102  15.2305  15.2348  15.2426
    15.2440  15.2476  15.2625  15.2706  15.2775  15.2781  15.2901  15.3058
    15.3078  15.3163  15.3214  15.3447  15.3727  15.3938  15.3999  15.4000
    15.4017  15.4106  15.4113  15.4169  15.4279  15.4729  15.4783  15.4859
    15.4860  15.4961  15.5236  15.5287  15.5362  15.5392  15.5548  15.5640
    15.5957  15.6049  15.6061  15.6117  15.6118  15.6243  15.6302  15.6541
    15.6924  15.6968  15.7030  15.7201  15.7254  15.7292  15.7346  15.7424
    15.7505  15.7764  15.7885  15.7954  15.8062  15.8164  15.8296  15.8414
    15.8534  15.8867  15.8887  15.8928  15.8988  15.9027  15.9087  15.9181
    15.9332  15.9398  15.9413  15.9760  15.9800  15.9828  15.9930  16.0217
    16.0274  16.0374  16.0456  16.0569  16.0679  16.0682  16.0739  16.0776
    16.0870  16.1218  16.1314  16.1373  16.1453  16.1468  16.1514  16.1625
    16.1636  16.1796  16.1856  16.1997  16.2032  16.2073  16.2334  16.2544
    16.2635  16.2661  16.2762  16.2925  16.2938  16.3125  16.3197  16.3216
    16.3525  16.3842  16.4217  16.4260  16.4425  16.4466  16.5116  16.5226
    16.5330  16.5496  16.5608  16.5636  16.5666  16.5679  16.5699  16.5727
    16.5834  16.5854  16.5924  16.5950  16.5982  16.6233  16.6525  16.6527
    16.6666  16.6715  16.7317  16.7467  16.7531  16.7594  16.7714  16.7731
    16.7860  16.7872  16.8076  16.8136  16.8217  16.8224  16.8450  16.8764
    16.8916  16.8938  16.9100  16.9151  16.9513  16.9544  17.0313  17.1254
    17.2164  17.4828  17.6171  17.6964  17.7009  17.7498  17.7798  17.7925
    17.8082  17.9144  17.9183  17.9252  17.9648  17.9727  17.9929  18.0212
    18.0565  18.0583  18.0798  18.0968  18.1037  18.3372  18.3980  18.4006
    18.4142  18.5776  18.5786  18.5834  18.6109  18.6274  18.6486  18.6505
    18.6657  18.7073  18.7821  18.8024  18.8233  18.9177  18.9179  18.9252
    19.0197  19.1337  19.1486  19.1714  19.1724  19.1981  19.2464  19.2565
    19.2769  19.3521  19.3731  19.3877  19.3955  19.4190  19.4287  19.4566
    19.4710  19.5033  19.6061  19.6712  19.7078  19.7114  19.7665  19.7876
    19.8252  19.8390  19.8692  19.9348  20.0510  20.2082  20.2525  20.2666
    20.4498  20.7698  20.9012  20.9069  21.1104  21.2955  21.4116  21.4728

     occupation numbers 
     1.0000   1.0000   1.0000   1.0000   1.0000   1.0000   1.0000   1.0000
     1.0000   1.0000   1.0000   1.0000   1.0000   1.0000   1.0000   1.0000
     1.0000   1.0000   1.0000   1.0000   1.0000   1.0000   1.0000   1.0000
     1.0000   1.0000   1.0000   1.0000   1.0000   1.0000   1.0000   1.0000
     1.0000   1.0000   1.0000   1.0000   1.0000   1.0000   1.0000   1.0000
     1.0000   1.0000   1.0000   1.0000   1.0000   1.0000   1.0000   1.0000
     1.0000   1.0000   1.0000   1.0000   1.0000   1.0000   1.0000   1.0000
     1.0000   1.0000   1.0000   1.0000   1.0000   1.0000   1.0000   1.0000
     1.0000   1.0000   1.0000   1.0000   1.0000   1.0000   1.0000   1.0000
     1.0000   1.0000   1.0000   1.0000   1.0000   1.0000   1.0000   1.0000
     1.0000   1.0000   1.0000   1.0000   1.0000   1.0000   1.0000   1.0000
     1.0000   1.0000   1.0000   1.0000   1.0000   1.0000   1.0000   1.0000
     1.0000   1.0000   1.0000   1.0000   1.0000   1.0000   1.0000   1.0000
     1.0000   1.0000   1.0000   1.0000   1.0000   1.0000   1.0000   1.0000
     1.0000   1.0000   1.0000   1.0000   1.0000   1.0000   1.0000   1.0000
     1.0000   1.0000   1.0000   1.0000   1.0000   1.0000   1.0000   1.0000
     1.0000   1.0000   1.0000   1.0000   1.0000   1.0000   1.0000   1.0000
     1.0000   1.0000   1.0000   1.0000   1.0000   1.0000   1.0000   1.0000
     1.0000   1.0000   1.0000   1.0000   1.0000   1.0000   1.0000   1.0000
     1.0000   1.0000   1.0000   1.0000   1.0000   1.0000   1.0000   1.0000
     1.0000   1.0000   1.0000   1.0000   1.0000   1.0000   1.0000   1.0000
     1.0000   1.0000   1.0000   1.0000   1.0000   1.0000   1.0000   1.0000
     1.0000   1.0000   1.0000   1.0000   1.0000   1.0000   1.0000   1.0000
     1.0000   1.0000   1.0000   1.0000   1.0000   1.0000   1.0000   1.0000
     1.0000   1.0000   1.0000   1.0000   1.0000   1.0000   1.0000   1.0000
     1.0000   1.0000   1.0000   1.0000   1.0000   1.0000   1.0000   1.0000
     1.0000   1.0000   1.0000   1.0000   1.0000   1.0000   1.0000   1.0000
     1.0000   1.0000   1.0000   1.0000   1.0000   1.0000   1.0000   1.0000
     1.0000   1.0000   1.0000   1.0000   1.0000   1.0000   1.0000   1.0000
     1.0000   1.0000   1.0000   1.0000   1.0000   1.0000   1.0000   1.0000
     1.0000   1.0000   1.0000   1.0000   1.0000   1.0000   1.0000   1.0000
     1.0000   1.0000   1.0000   1.0000   1.0000   1.0000   1.0000   1.0000
     1.0000   1.0000   1.0000   1.0000   1.0000   1.0000   1.0000   1.0000
     1.0000   1.0000   1.0000   1.0000   1.0000   1.0000   1.0000   1.0000
     1.0000   1.0000   1.0000   1.0000   1.0000   1.0000   1.0000   1.0000
     1.0000   1.0000   1.0000   1.0000   1.0000   1.0000   1.0000   1.0000
     1.0000   1.0000   1.0000   1.0000   1.0000   1.0000   1.0000   1.0000
     1.0000   1.0000   1.0000   1.0000   1.0000   1.0000   1.0000   1.0000
     1.0000   1.0000   1.0000   1.0000   1.0000   1.0000   1.0000   1.0000
     1.0000   1.0000   1.0000   1.0000   1.0000   1.0000   1.0000   1.0000
     1.0000   1.0000   1.0000   1.0000   1.0000   1.0000   1.0000   1.0000
     1.0000   1.0000   1.0000   1.0000   1.0000   1.0000   1.0000   1.0000
     1.0000   1.0000   1.0000   1.0000   1.0000   1.0000   1.0000   1.0000
     1.0000   1.0000   1.0000   1.0000   1.0000   1.0000   1.0000   1.0000
     1.0000   1.0000   1.0000   1.0000   1.0000   1.0000   1.0000   1.0000
     1.0000   1.0000   1.0000   1.0000   1.0000   1.0000   1.0000   1.0000
     1.0000   1.0000   1.0000   1.0000   1.0000   1.0000   1.0000   1.0000
     1.0000   1.0000   1.0000   1.0000   1.0000   1.0000   1.0000   1.0000
     1.0000   1.0000   1.0000   1.0000   1.0000   1.0000   1.0000   1.0000
     1.0000   1.0000   1.0000   1.0000   1.0000   1.0000   1.0000   1.0000
     1.0000   1.0000   1.0000   1.0000   1.0000   1.0000   1.0000   1.0000
     1.0000   1.0000   1.0000   1.0000   1.0000   1.0000   1.0000   1.0000
     1.0000   1.0000   1.0000   1.0000   1.0000   1.0000   1.0000   1.0000
     1.0000   1.0000   1.0000   1.0000   1.0000   1.0000   1.0000   1.0000
     1.0000   1.0000   1.0000   1.0000   1.0000   1.0000   1.0000   1.0000
     1.0000   1.0000   1.0000   1.0000   1.0000   1.0000   1.0000   1.0000
     1.0000   1.0000   1.0000   1.0000   1.0000   1.0000   1.0000   1.0000
     1.0000   1.0000   1.0000   1.0000   1.0000   1.0000   1.0000   1.0000
     1.0000   1.0000   1.0000   1.0000   1.0000   1.0000   1.0000   1.0000
     1.0000   1.0000   1.0000   1.0000   1.0000   1.0000   1.0000   1.0000
     1.0000   1.0000   1.0000   1.0000   1.0000   1.0000   1.0000   1.0000
     1.0000   1.0000   1.0000   1.0000   1.0000   1.0000   1.0000   1.0000
     1.0000   1.0000   1.0000   1.0000   1.0000   1.0000   1.0000   1.0000
     1.0000   1.0000   1.0000   1.0000   1.0000   1.0000   1.0000   1.0000
     1.0000   1.0000   1.0000   1.0000   1.0000   1.0000   1.0000   1.0000
     1.0000   1.0000   1.0000   1.0000   1.0000   1.0000   1.0000   1.0000
     1.0000   1.0000   1.0000   1.0000   1.0000   1.0000   1.0000   1.0000
     1.0000   1.0000   1.0000   1.0000   1.0000   1.0000   1.0000   1.0000
     1.0000   1.0000   1.0000   1.0000   1.0000   1.0000   1.0000   1.0000
     1.0000   1.0000   1.0000   1.0000   1.0000   1.0000   1.0000   1.0000
     1.0000   1.0000   1.0000   1.0000   1.0000   1.0000   1.0000   1.0000
     1.0000   1.0000   1.0000   1.0000   1.0000   1.0000   1.0000   1.0000
     1.0000   1.0000   1.0000   1.0000   1.0000   1.0000   1.0000   1.0000
     1.0000   1.0000   1.0000   1.0000   1.0000   1.0000   1.0000   1.0000
     1.0000   1.0000   1.0000   1.0000   1.0000   1.0000   1.0000   1.0000
     1.0000   1.0000   1.0000   1.0000   1.0000   1.0000   1.0000   1.0000
     1.0000   1.0000   1.0000   1.0000   1.0000   1.0000   1.0000   1.0000
     1.0000   1.0000   1.0000   1.0000   1.0000   1.0000   1.0000   1.0000
     1.0000   1.0000   1.0000   1.0000   1.0000   1.0000   1.0000   1.0000
     1.0000   1.0000   1.0000   1.0000   1.0000   1.0000   1.0000   1.0000
     1.0000   1.0000   1.0000   1.0000   1.0000   1.0000   1.0000   1.0000
     1.0000   1.0000   1.0000   1.0000   1.0000   1.0000   1.0000   1.0000
     1.0000   1.0000   1.0000   1.0000   1.0000   1.0000   1.0000   1.0000
     1.0000   1.0000   1.0000   1.0000   1.0000   1.0000   1.0000   1.0000
     1.0000   1.0000   1.0000   1.0000   1.0000   1.0000   0.9999   0.9998
     0.9998   0.9997   0.9996   0.9996   0.9996   0.9996   0.9996   0.9995
     0.9994   0.9994   0.9993   0.9993   0.9993   0.9988   0.9981   0.9981
     0.9976   0.9974   0.9935   0.9919   0.9912   0.9904   0.9886   0.9884
     0.9862   0.9860   0.9817   0.9802   0.9781   0.9779   0.9710   0.9584
     0.9508   0.9497   0.9403   0.9371   0.9104   0.9077   0.8231   0.6694
     0.4861   0.0779   0.0171   0.0057   0.0053   0.0025   0.0015   0.0012
     0.0009   0.0001   0.0001   0.0001   0.0000   0.0000   0.0000   0.0000
     0.0000   0.0000   0.0000   0.0000   0.0000   0.0000   0.0000   0.0000
     0.0000   0.0000   0.0000   0.0000   0.0000   0.0000   0.0000   0.0000
     0.0000   0.0000   0.0000   0.0000   0.0000   0.0000   0.0000   0.0000
     0.0000   0.0000   0.0000   0.0000   0.0000   0.0000   0.0000   0.0000
     0.0000   0.0000   0.0000   0.0000   0.0000   0.0000   0.0000   0.0000
     0.0000   0.0000   0.0000   0.0000   0.0000   0.0000   0.0000   0.0000
     0.0000   0.0000   0.0000   0.0000   0.0000   0.0000   0.0000   0.0000
     0.0000   0.0000   0.0000   0.0000   0.0000   0.0000   0.0000   0.0000

          k = 0.2500 0.4330-0.5700 (100580 PWs)   bands (ev):

   -71.2187 -71.2182 -71.2181 -71.2132 -71.2132 -71.2131 -71.1728 -71.1728
   -71.1720 -71.1719 -71.1718 -71.1718 -71.1717 -71.1717 -71.1717 -71.1716
   -71.1715 -71.1715 -71.1699 -71.1698 -71.1697 -71.1696 -71.1687 -71.1687
   -71.1686 -71.1685 -71.1685 -71.1685 -71.1684 -71.1683 -71.1282 -71.1280
   -71.1277 -71.1277 -71.1275 -71.1275 -70.0223 -70.0223 -70.0222 -70.0222
   -70.0221 -70.0220 -70.0105 -70.0104 -70.0103 -70.0103 -70.0103 -70.0102
   -70.0099 -70.0099 -70.0098 -70.0098 -70.0096 -70.0095 -70.0074 -70.0074
   -70.0072 -69.9988 -69.9988 -69.9986 -69.9818 -69.9816 -69.9712 -69.9711
   -69.9708 -69.9706 -69.9648 -69.9648 -69.9643 -69.8969 -69.8899 -69.8898
   -37.3523 -37.3518 -37.3515 -37.3456 -37.3455 -37.3454 -37.3083 -37.3081
   -37.3081 -37.3080 -37.3077 -37.3069 -37.3061 -37.3058 -37.3055 -37.3045
   -37.3043 -37.3042 -37.3019 -37.3019 -37.3000 -37.2999 -37.2995 -37.2995
   -37.2993 -37.2993 -37.2976 -37.2975 -37.2974 -37.2973 -37.2702 -37.2693
   -37.2691 -37.2682 -37.2678 -37.2670 -37.2642 -37.2637 -37.2636 -37.2596
   -37.2595 -37.2571 -37.2447 -37.2402 -37.2401 -37.2307 -37.2304 -37.2278
   -37.2180 -37.2176 -37.2165 -37.2162 -37.2160 -37.2159 -37.2141 -37.2138
   -37.2127 -37.2119 -37.2118 -37.2117 -37.2115 -37.2115 -37.2112 -37.2111
   -37.2107 -37.2100 -37.2093 -37.2091 -37.2080 -37.2079 -37.2057 -37.2051
   -37.2048 -37.2045 -37.2040 -37.2035 -37.2032 -37.2023 -37.2021 -37.2013
   -37.1999 -37.1986 -37.1979 -37.1970 -37.1970 -37.1965 -37.1962 -37.1960
   -37.1943 -37.1942 -37.1932 -37.1928 -37.1924 -37.1920 -37.1919 -37.1913
   -37.1793 -37.1786 -37.1783 -37.1781 -37.1778 -37.1776 -37.1372 -37.1370
   -37.1367 -37.1366 -37.1360 -37.1358 -36.3120 -36.3118 -36.3116 -36.3116
   -36.3113 -36.3111 -36.2932 -36.2931 -36.2928 -36.2758 -36.2751 -36.2526
   -36.2222 -36.2219 -36.2218 -36.2216 -36.2215 -36.2214 -36.2212 -36.2209
   -36.2208 -36.2207 -36.2207 -36.2205 -36.2144 -36.2144 -36.2142 -36.1923
   -36.1920 -36.1920 -36.1916 -36.1833 -36.1832 -36.1829 -36.1822 -36.1821
   -36.0724 -36.0721 -36.0718 -36.0718 -36.0717 -36.0714 -36.0707 -36.0706
   -36.0706 -36.0704 -36.0702 -36.0700 -36.0523 -36.0522 -36.0521 -36.0423
   -36.0421 -36.0419 -36.0401 -36.0398 -36.0395 -36.0395 -36.0393 -36.0392
   -36.0388 -36.0378 -36.0368 -36.0341 -36.0339 -36.0337 -36.0262 -36.0260
   -36.0258 -36.0257 -36.0253 -36.0253 -36.0247 -36.0233 -36.0230 -36.0229
   -36.0224 -36.0222 -36.0221 -36.0217 -36.0215 -36.0213 -36.0193 -36.0193
   -36.0190 -36.0135 -36.0134 -36.0132 -36.0097 -36.0095 -36.0091 -36.0041
   -35.9998 -35.9966 -35.9962 -35.9919 -35.9915 -35.9881 -35.9877 -35.9751
   -35.9750 -35.9746 -35.9275 -35.9200 -35.9199 -35.8929 -35.8928 -35.8721
     3.5142   3.7899   3.9269   4.0495   4.0715   4.0846   4.4983   4.6775
     4.8339   4.8530   5.0260   5.1471   5.1895   5.2068   5.2387   5.2517
     5.3080   5.4065   5.4099   5.4590   5.4598   5.4626   5.5370   5.5480
     5.5508   5.5579   5.5609   5.5653   5.5841   5.7272   5.7629   5.7799
     5.8598   6.0911   6.0934   6.2179   8.1408   9.6531   9.7995   9.8289
     9.8364   9.8832   9.9835   9.9899  10.0069  10.0117  10.0388  10.0744
    10.0815  10.1165  10.1790  10.2061  10.3260  10.3463  10.3469  10.3582
    10.3678  10.3767  10.3803  10.5376  10.5576  10.6401  10.6649  10.8406
    10.8480  11.0407  11.1945  11.2715  11.2771  11.2983  11.3082  11.4176
    11.4560  11.5722  11.5827  11.5953  11.6134  11.6488  11.6824  11.7308
    11.7487  11.7529  11.7665  11.7711  11.7849  11.8481  11.8806  11.9371
    11.9379  11.9568  11.9597  11.9775  11.9912  12.0532  12.0600  12.0761
    12.1071  12.1188  12.1365  12.1612  12.1777  12.1888  12.2033  12.2042
    12.2214  12.2224  12.2233  12.2236  12.2334  12.2426  12.2477  12.2695
    12.2711  12.3046  12.3119  12.3200  12.3206  12.3239  12.3286  12.3675
    12.3911  12.3970  12.4894  12.5028  12.5052  12.6094  12.6152  12.6219
    12.6284  12.7246  12.7388  12.7495  12.7550  12.7564  12.7592  12.7687
    12.8832  12.8939  12.9720  12.9955  12.9983  13.0055  13.0094  13.0191
    13.5095  13.5479  13.6130  13.6268  13.6281  13.6338  13.6352  13.6389
    13.6418  13.6480  13.6586  13.6606  13.6758  13.7116  13.7218  13.7225
    13.7337  13.7722  13.7765  13.7847  13.7963  13.8002  13.8041  13.8046
    13.8489  13.8490  13.8581  13.8605  13.8741  13.8828  13.8868  13.8879
    13.8999  13.9073  13.9173  13.9330  13.9449  13.9541  13.9604  13.9700
    13.9733  13.9735  13.9765  13.9773  13.9866  14.0071  14.0116  14.0483
    14.0526  14.0598  14.0748  14.0757  14.0781  14.0783  14.0890  14.0961
    14.1168  14.1207  14.1210  14.1284  14.1439  14.1588  14.1637  14.1649
    14.1663  14.1896  14.2197  14.2224  14.2423  14.2435  14.2858  14.2997
    14.3094  14.3176  14.3184  14.3186  14.3362  14.3435  14.4471  14.4514
    14.4575  14.4638  14.4892  14.4925  14.7800  14.7852  14.8602  14.8827
    14.8834  14.8893  14.8893  14.8904  14.9042  14.9081  14.9485  14.9610
    14.9658  14.9702  14.9728  14.9734  14.9822  14.9889  14.9918  14.9988
    15.0015  15.0024  15.0098  15.0166  15.0230  15.0422  15.0529  15.0583
    15.0617  15.0664  15.0722  15.0740  15.0805  15.0834  15.0846  15.0853
    15.0903  15.0904  15.1000  15.1016  15.1159  15.1185  15.1230  15.1235
    15.1306  15.1315  15.1460  15.1534  15.1748  15.1788  15.2124  15.2141
    15.2339  15.2441  15.2474  15.2596  15.2616  15.2634  15.2749  15.2827
    15.3476  15.3481  15.3511  15.3572  15.3788  15.3869  15.3990  15.4138
    15.4155  15.4270  15.4579  15.4581  15.4694  15.4791  15.4863  15.4968
    15.4979  15.5026  15.5051  15.5188  15.5220  15.5255  15.5509  15.5743
    15.6007  15.6042  15.6050  15.6104  15.6124  15.6133  15.6576  15.6587
    15.6628  15.6695  15.6740  15.6784  15.6943  15.6948  15.6984  15.7065
    15.7939  15.7998  15.8027  15.8095  15.8587  15.8591  15.8659  15.8688
    15.8879  15.8888  15.9017  15.9052  15.9064  15.9100  15.9161  15.9320
    15.9399  15.9417  15.9433  15.9447  15.9676  15.9722  15.9797  15.9881
    15.9886  15.9891  16.0009  16.0071  16.0143  16.0150  16.0209  16.0261
    16.0325  16.1038  16.1267  16.1292  16.1386  16.1447  16.1589  16.1589
    16.1669  16.1712  16.1732  16.1802  16.1942  16.2028  16.2053  16.2492
    16.2679  16.2702  16.2749  16.3025  16.3131  16.3173  16.3285  16.3306
    16.3308  16.3646  16.3775  16.3892  16.3929  16.4348  16.4456  16.5140
    16.5609  16.5619  16.5717  16.5731  16.5750  16.5758  16.5760  16.5812
    16.5856  16.5906  16.6068  16.6092  16.6125  16.6330  16.6337  16.6460
    16.6914  16.6978  16.7168  16.7230  16.7252  16.7362  16.7407  16.7506
    16.8067  16.8144  16.8448  16.8473  16.8672  16.8725  16.8741  16.8776
    16.9833  16.9887  17.0683  17.0766  17.0769  17.0856  17.0894  17.0921
    17.2157  17.2287  17.5535  17.5565  17.5572  17.5861  17.6676  17.6810
    17.7588  17.8749  17.8778  18.0317  18.0500  18.0751  18.0797  18.0805
    18.1144  18.1518  18.1545  18.2667  18.2673  18.2733  18.3078  18.3088
    18.3714  18.3815  18.5104  18.6088  18.6753  18.7188  18.8088  18.8102
    18.8109  18.8248  18.8530  18.8571  18.9567  18.9891  18.9951  18.9977
    19.0159  19.0256  19.0458  19.0688  19.0724  19.0943  19.0966  19.1208
    19.1283  19.1416  19.1558  19.2656  19.2909  19.3059  19.3280  19.3852
    19.4153  19.4895  19.5002  19.5257  19.5449  19.5657  19.5815  19.8314
    19.8501  19.8543  19.8569  19.9488  19.9542  20.1717  20.1729  20.2712
    20.4084  20.6337  20.9100  20.9113  20.9194  21.5345  21.5672  21.7704

     occupation numbers 
     1.0000   1.0000   1.0000   1.0000   1.0000   1.0000   1.0000   1.0000
     1.0000   1.0000   1.0000   1.0000   1.0000   1.0000   1.0000   1.0000
     1.0000   1.0000   1.0000   1.0000   1.0000   1.0000   1.0000   1.0000
     1.0000   1.0000   1.0000   1.0000   1.0000   1.0000   1.0000   1.0000
     1.0000   1.0000   1.0000   1.0000   1.0000   1.0000   1.0000   1.0000
     1.0000   1.0000   1.0000   1.0000   1.0000   1.0000   1.0000   1.0000
     1.0000   1.0000   1.0000   1.0000   1.0000   1.0000   1.0000   1.0000
     1.0000   1.0000   1.0000   1.0000   1.0000   1.0000   1.0000   1.0000
     1.0000   1.0000   1.0000   1.0000   1.0000   1.0000   1.0000   1.0000
     1.0000   1.0000   1.0000   1.0000   1.0000   1.0000   1.0000   1.0000
     1.0000   1.0000   1.0000   1.0000   1.0000   1.0000   1.0000   1.0000
     1.0000   1.0000   1.0000   1.0000   1.0000   1.0000   1.0000   1.0000
     1.0000   1.0000   1.0000   1.0000   1.0000   1.0000   1.0000   1.0000
     1.0000   1.0000   1.0000   1.0000   1.0000   1.0000   1.0000   1.0000
     1.0000   1.0000   1.0000   1.0000   1.0000   1.0000   1.0000   1.0000
     1.0000   1.0000   1.0000   1.0000   1.0000   1.0000   1.0000   1.0000
     1.0000   1.0000   1.0000   1.0000   1.0000   1.0000   1.0000   1.0000
     1.0000   1.0000   1.0000   1.0000   1.0000   1.0000   1.0000   1.0000
     1.0000   1.0000   1.0000   1.0000   1.0000   1.0000   1.0000   1.0000
     1.0000   1.0000   1.0000   1.0000   1.0000   1.0000   1.0000   1.0000
     1.0000   1.0000   1.0000   1.0000   1.0000   1.0000   1.0000   1.0000
     1.0000   1.0000   1.0000   1.0000   1.0000   1.0000   1.0000   1.0000
     1.0000   1.0000   1.0000   1.0000   1.0000   1.0000   1.0000   1.0000
     1.0000   1.0000   1.0000   1.0000   1.0000   1.0000   1.0000   1.0000
     1.0000   1.0000   1.0000   1.0000   1.0000   1.0000   1.0000   1.0000
     1.0000   1.0000   1.0000   1.0000   1.0000   1.0000   1.0000   1.0000
     1.0000   1.0000   1.0000   1.0000   1.0000   1.0000   1.0000   1.0000
     1.0000   1.0000   1.0000   1.0000   1.0000   1.0000   1.0000   1.0000
     1.0000   1.0000   1.0000   1.0000   1.0000   1.0000   1.0000   1.0000
     1.0000   1.0000   1.0000   1.0000   1.0000   1.0000   1.0000   1.0000
     1.0000   1.0000   1.0000   1.0000   1.0000   1.0000   1.0000   1.0000
     1.0000   1.0000   1.0000   1.0000   1.0000   1.0000   1.0000   1.0000
     1.0000   1.0000   1.0000   1.0000   1.0000   1.0000   1.0000   1.0000
     1.0000   1.0000   1.0000   1.0000   1.0000   1.0000   1.0000   1.0000
     1.0000   1.0000   1.0000   1.0000   1.0000   1.0000   1.0000   1.0000
     1.0000   1.0000   1.0000   1.0000   1.0000   1.0000   1.0000   1.0000
     1.0000   1.0000   1.0000   1.0000   1.0000   1.0000   1.0000   1.0000
     1.0000   1.0000   1.0000   1.0000   1.0000   1.0000   1.0000   1.0000
     1.0000   1.0000   1.0000   1.0000   1.0000   1.0000   1.0000   1.0000
     1.0000   1.0000   1.0000   1.0000   1.0000   1.0000   1.0000   1.0000
     1.0000   1.0000   1.0000   1.0000   1.0000   1.0000   1.0000   1.0000
     1.0000   1.0000   1.0000   1.0000   1.0000   1.0000   1.0000   1.0000
     1.0000   1.0000   1.0000   1.0000   1.0000   1.0000   1.0000   1.0000
     1.0000   1.0000   1.0000   1.0000   1.0000   1.0000   1.0000   1.0000
     1.0000   1.0000   1.0000   1.0000   1.0000   1.0000   1.0000   1.0000
     1.0000   1.0000   1.0000   1.0000   1.0000   1.0000   1.0000   1.0000
     1.0000   1.0000   1.0000   1.0000   1.0000   1.0000   1.0000   1.0000
     1.0000   1.0000   1.0000   1.0000   1.0000   1.0000   1.0000   1.0000
     1.0000   1.0000   1.0000   1.0000   1.0000   1.0000   1.0000   1.0000
     1.0000   1.0000   1.0000   1.0000   1.0000   1.0000   1.0000   1.0000
     1.0000   1.0000   1.0000   1.0000   1.0000   1.0000   1.0000   1.0000
     1.0000   1.0000   1.0000   1.0000   1.0000   1.0000   1.0000   1.0000
     1.0000   1.0000   1.0000   1.0000   1.0000   1.0000   1.0000   1.0000
     1.0000   1.0000   1.0000   1.0000   1.0000   1.0000   1.0000   1.0000
     1.0000   1.0000   1.0000   1.0000   1.0000   1.0000   1.0000   1.0000
     1.0000   1.0000   1.0000   1.0000   1.0000   1.0000   1.0000   1.0000
     1.0000   1.0000   1.0000   1.0000   1.0000   1.0000   1.0000   1.0000
     1.0000   1.0000   1.0000   1.0000   1.0000   1.0000   1.0000   1.0000
     1.0000   1.0000   1.0000   1.0000   1.0000   1.0000   1.0000   1.0000
     1.0000   1.0000   1.0000   1.0000   1.0000   1.0000   1.0000   1.0000
     1.0000   1.0000   1.0000   1.0000   1.0000   1.0000   1.0000   1.0000
     1.0000   1.0000   1.0000   1.0000   1.0000   1.0000   1.0000   1.0000
     1.0000   1.0000   1.0000   1.0000   1.0000   1.0000   1.0000   1.0000
     1.0000   1.0000   1.0000   1.0000   1.0000   1.0000   1.0000   1.0000
     1.0000   1.0000   1.0000   1.0000   1.0000   1.0000   1.0000   1.0000
     1.0000   1.0000   1.0000   1.0000   1.0000   1.0000   1.0000   1.0000
     1.0000   1.0000   1.0000   1.0000   1.0000   1.0000   1.0000   1.0000
     1.0000   1.0000   1.0000   1.0000   1.0000   1.0000   1.0000   1.0000
     1.0000   1.0000   1.0000   1.0000   1.0000   1.0000   1.0000   1.0000
     1.0000   1.0000   1.0000   1.0000   1.0000   1.0000   1.0000   1.0000
     1.0000   1.0000   1.0000   1.0000   1.0000   1.0000   1.0000   1.0000
     1.0000   1.0000   1.0000   1.0000   1.0000   1.0000   1.0000   1.0000
     1.0000   1.0000   1.0000   1.0000   1.0000   1.0000   1.0000   1.0000
     1.0000   1.0000   1.0000   1.0000   1.0000   1.0000   1.0000   1.0000
     1.0000   1.0000   1.0000   1.0000   1.0000   1.0000   1.0000   1.0000
     1.0000   1.0000   1.0000   1.0000   1.0000   1.0000   1.0000   1.0000
     1.0000   1.0000   1.0000   1.0000   1.0000   1.0000   1.0000   1.0000
     1.0000   1.0000   1.0000   1.0000   1.0000   1.0000   1.0000   1.0000
     1.0000   1.0000   1.0000   1.0000   1.0000   1.0000   1.0000   1.0000
     1.0000   1.0000   1.0000   1.0000   1.0000   1.0000   1.0000   1.0000
     1.0000   1.0000   1.0000   1.0000   1.0000   1.0000   1.0000   1.0000
     1.0000   1.0000   1.0000   1.0000   1.0000   1.0000   1.0000   1.0000
     1.0000   1.0000   1.0000   1.0000   1.0000   1.0000   1.0000   1.0000
     1.0000   1.0000   1.0000   1.0000   1.0000   1.0000   1.0000   1.0000
     1.0000   1.0000   1.0000   1.0000   1.0000   1.0000   1.0000   0.9999
     0.9996   0.9996   0.9995   0.9995   0.9995   0.9995   0.9995   0.9995
     0.9994   0.9994   0.9991   0.9991   0.9990   0.9986   0.9986   0.9983
     0.9965   0.9961   0.9948   0.9943   0.9941   0.9931   0.9926   0.9915
     0.9819   0.9800   0.9710   0.9702   0.9625   0.9601   0.9594   0.9578
     0.8803   0.8747   0.7687   0.7554   0.7549   0.7406   0.7340   0.7295
     0.4875   0.4606   0.0370   0.0357   0.0354   0.0252   0.0087   0.0072
     0.0022   0.0003   0.0003   0.0000   0.0000   0.0000   0.0000   0.0000
     0.0000   0.0000   0.0000   0.0000   0.0000   0.0000   0.0000   0.0000
     0.0000   0.0000   0.0000   0.0000   0.0000   0.0000   0.0000   0.0000
     0.0000   0.0000   0.0000   0.0000   0.0000   0.0000   0.0000   0.0000
     0.0000   0.0000   0.0000   0.0000   0.0000   0.0000   0.0000   0.0000
     0.0000   0.0000   0.0000   0.0000   0.0000   0.0000   0.0000   0.0000
     0.0000   0.0000   0.0000   0.0000   0.0000   0.0000   0.0000   0.0000
     0.0000   0.0000   0.0000   0.0000   0.0000   0.0000   0.0000   0.0000
     0.0000   0.0000   0.0000   0.0000   0.0000   0.0000   0.0000   0.0000

          k =-0.2500-0.4330 0.2850 (100562 PWs)   bands (ev):

   -71.2187 -71.2182 -71.2181 -71.2132 -71.2132 -71.2131 -71.1728 -71.1728
   -71.1720 -71.1719 -71.1718 -71.1718 -71.1717 -71.1717 -71.1717 -71.1716
   -71.1715 -71.1715 -71.1699 -71.1698 -71.1697 -71.1696 -71.1687 -71.1687
   -71.1686 -71.1685 -71.1685 -71.1685 -71.1684 -71.1683 -71.1282 -71.1280
   -71.1277 -71.1277 -71.1275 -71.1275 -70.0223 -70.0223 -70.0222 -70.0222
   -70.0221 -70.0220 -70.0105 -70.0104 -70.0103 -70.0103 -70.0103 -70.0102
   -70.0099 -70.0099 -70.0098 -70.0098 -70.0096 -70.0095 -70.0074 -70.0074
   -70.0072 -69.9988 -69.9988 -69.9986 -69.9818 -69.9816 -69.9712 -69.9711
   -69.9708 -69.9706 -69.9648 -69.9648 -69.9643 -69.8969 -69.8899 -69.8898
   -37.3523 -37.3518 -37.3515 -37.3455 -37.3455 -37.3454 -37.3083 -37.3081
   -37.3080 -37.3077 -37.3075 -37.3064 -37.3058 -37.3055 -37.3053 -37.3043
   -37.3041 -37.3040 -37.3030 -37.3029 -37.3011 -37.3008 -37.3007 -37.3005
   -37.2993 -37.2993 -37.2967 -37.2966 -37.2964 -37.2964 -37.2702 -37.2694
   -37.2691 -37.2682 -37.2679 -37.2669 -37.2641 -37.2637 -37.2636 -37.2596
   -37.2595 -37.2571 -37.2447 -37.2402 -37.2401 -37.2307 -37.2304 -37.2278
   -37.2179 -37.2176 -37.2165 -37.2163 -37.2160 -37.2159 -37.2141 -37.2138
   -37.2126 -37.2119 -37.2119 -37.2118 -37.2115 -37.2115 -37.2112 -37.2110
   -37.2107 -37.2100 -37.2093 -37.2091 -37.2080 -37.2079 -37.2057 -37.2051
   -37.2048 -37.2045 -37.2040 -37.2035 -37.2031 -37.2024 -37.2021 -37.2013
   -37.1997 -37.1987 -37.1979 -37.1971 -37.1970 -37.1965 -37.1962 -37.1960
   -37.1943 -37.1942 -37.1932 -37.1928 -37.1924 -37.1920 -37.1920 -37.1913
   -37.1793 -37.1786 -37.1783 -37.1781 -37.1778 -37.1777 -37.1372 -37.1370
   -37.1367 -37.1366 -37.1360 -37.1358 -36.3120 -36.3118 -36.3116 -36.3115
   -36.3113 -36.3110 -36.2932 -36.2931 -36.2928 -36.2758 -36.2751 -36.2526
   -36.2222 -36.2219 -36.2218 -36.2216 -36.2215 -36.2214 -36.2212 -36.2209
   -36.2208 -36.2207 -36.2207 -36.2205 -36.2144 -36.2144 -36.2142 -36.1923
   -36.1920 -36.1920 -36.1916 -36.1833 -36.1832 -36.1829 -36.1822 -36.1821
   -36.0724 -36.0721 -36.0718 -36.0718 -36.0717 -36.0714 -36.0707 -36.0706
   -36.0706 -36.0704 -36.0702 -36.0700 -36.0523 -36.0522 -36.0521 -36.0423
   -36.0421 -36.0419 -36.0401 -36.0398 -36.0396 -36.0395 -36.0393 -36.0391
   -36.0385 -36.0375 -36.0367 -36.0343 -36.0342 -36.0341 -36.0262 -36.0258
   -36.0258 -36.0257 -36.0253 -36.0252 -36.0246 -36.0232 -36.0232 -36.0230
   -36.0224 -36.0222 -36.0221 -36.0218 -36.0215 -36.0214 -36.0193 -36.0192
   -36.0189 -36.0133 -36.0133 -36.0131 -36.0097 -36.0095 -36.0091 -36.0041
   -35.9998 -35.9966 -35.9962 -35.9919 -35.9915 -35.9881 -35.9877 -35.9751
   -35.9750 -35.9746 -35.9275 -35.9200 -35.9199 -35.8929 -35.8928 -35.8721
     3.4260   3.7264   3.8790   4.0587   4.2579   4.3904   4.4525   4.6792
     4.8039   4.9521   5.0139   5.0531   5.0918   5.1213   5.1571   5.1831
     5.2847   5.3453   5.3861   5.4205   5.4388   5.4462   5.4588   5.5523
     5.6139   5.6259   5.6493   5.6568   5.6764   5.7176   5.7180   5.7889
     5.9086   6.0351   6.0377   6.1734   8.2249   9.7511   9.8217   9.8329
     9.9228   9.9592   9.9785  10.0110  10.0227  10.0801  10.1097  10.1724
    10.1822  10.1856  10.1914  10.2302  10.2359  10.2561  10.3971  10.4211
    10.4712  10.5244  10.5335  10.5531  10.6090  10.6221  10.7035  10.8355
    10.8495  10.8941  11.1078  11.1342  11.1479  11.2266  11.2307  11.2697
    11.3241  11.4147  11.4607  11.4608  11.4753  11.5281  11.5403  11.6107
    11.6447  11.6947  11.7458  11.7807  11.7965  11.8322  11.8500  11.8523
    11.8662  11.8694  11.8833  11.9213  11.9402  11.9696  12.0272  12.0306
    12.0415  12.0922  12.1055  12.1103  12.1181  12.1297  12.1390  12.1550
    12.1553  12.1911  12.2378  12.2779  12.2809  12.2973  12.3190  12.3217
    12.3407  12.3895  12.3983  12.4238  12.4339  12.4616  12.4707  12.4731
    12.4852  12.5136  12.5255  12.5475  12.5513  12.6315  12.6321  12.6424
    12.6555  12.6667  12.7213  12.7450  12.7783  12.8469  12.8522  12.8546
    12.8919  12.9112  12.9528  12.9569  13.0058  13.0411  13.1428  13.1725
    13.4879  13.5585  13.5938  13.6083  13.6228  13.6266  13.6354  13.6456
    13.6592  13.6693  13.6699  13.6771  13.6977  13.7006  13.7141  13.7295
    13.7330  13.7580  13.7666  13.7731  13.7795  13.7912  13.8270  13.8327
    13.8483  13.8548  13.8635  13.8638  13.8786  13.8818  13.8873  13.8897
    13.8974  13.9149  13.9202  13.9262  13.9407  13.9410  13.9474  13.9511
    13.9579  13.9611  13.9627  14.0136  14.0193  14.0294  14.0341  14.0459
    14.0644  14.0663  14.0734  14.0774  14.0853  14.0906  14.1009  14.1062
    14.1079  14.1224  14.1225  14.1363  14.1365  14.1532  14.1860  14.2029
    14.2046  14.2118  14.2197  14.2288  14.2330  14.2362  14.2386  14.2400
    14.2458  14.2768  14.3087  14.3183  14.3469  14.3747  14.3949  14.4031
    14.4769  14.5920  14.5936  14.5975  14.6909  14.7687  14.7791  14.8328
    14.8354  14.8398  14.8713  14.8854  14.8864  14.8954  14.8963  14.9097
    14.9152  14.9280  14.9433  14.9483  14.9502  14.9812  14.9821  14.9851
    14.9908  14.9960  14.9963  15.0042  15.0058  15.0155  15.0238  15.0310
    15.0379  15.0478  15.0591  15.0618  15.0664  15.0808  15.0919  15.0982
    15.1162  15.1170  15.1231  15.1238  15.1370  15.1401  15.1487  15.1635
    15.1690  15.1734  15.1846  15.1998  15.2102  15.2305  15.2348  15.2426
    15.2440  15.2476  15.2625  15.2706  15.2775  15.2781  15.2901  15.3058
    15.3078  15.3163  15.3214  15.3447  15.3727  15.3938  15.3999  15.4000
    15.4017  15.4106  15.4113  15.4169  15.4279  15.4729  15.4783  15.4859
    15.4860  15.4961  15.5236  15.5287  15.5362  15.5392  15.5548  15.5640
    15.5957  15.6049  15.6061  15.6117  15.6118  15.6243  15.6302  15.6541
    15.6924  15.6968  15.7030  15.7201  15.7254  15.7292  15.7346  15.7424
    15.7505  15.7764  15.7885  15.7954  15.8062  15.8164  15.8296  15.8414
    15.8534  15.8867  15.8887  15.8928  15.8988  15.9027  15.9087  15.9181
    15.9332  15.9398  15.9413  15.9760  15.9800  15.9828  15.9930  16.0217
    16.0274  16.0374  16.0456  16.0569  16.0679  16.0682  16.0739  16.0776
    16.0870  16.1218  16.1314  16.1373  16.1453  16.1468  16.1514  16.1625
    16.1636  16.1796  16.1856  16.1997  16.2032  16.2073  16.2334  16.2544
    16.2635  16.2661  16.2762  16.2925  16.2938  16.3125  16.3197  16.3216
    16.3525  16.3842  16.4217  16.4260  16.4425  16.4466  16.5116  16.5226
    16.5330  16.5496  16.5608  16.5636  16.5666  16.5679  16.5699  16.5727
    16.5834  16.5854  16.5924  16.5950  16.5982  16.6233  16.6525  16.6527
    16.6666  16.6715  16.7317  16.7467  16.7531  16.7594  16.7714  16.7731
    16.7860  16.7872  16.8076  16.8136  16.8217  16.8224  16.8450  16.8764
    16.8916  16.8938  16.9100  16.9151  16.9513  16.9544  17.0313  17.1254
    17.2164  17.4828  17.6171  17.6964  17.7009  17.7498  17.7798  17.7925
    17.8082  17.9144  17.9183  17.9252  17.9648  17.9727  17.9929  18.0212
    18.0565  18.0583  18.0798  18.0968  18.1037  18.3372  18.3980  18.4006
    18.4142  18.5776  18.5786  18.5834  18.6109  18.6274  18.6486  18.6505
    18.6657  18.7073  18.7821  18.8024  18.8233  18.9178  18.9179  18.9252
    19.0197  19.1337  19.1486  19.1714  19.1724  19.1981  19.2464  19.2565
    19.2769  19.3521  19.3731  19.3877  19.3955  19.4190  19.4287  19.4566
    19.4710  19.5033  19.6061  19.6712  19.7078  19.7114  19.7665  19.7876
    19.8252  19.8390  19.8692  19.9348  20.0510  20.2082  20.2525  20.2666
    20.4498  20.7698  20.9012  20.9068  21.1104  21.2955  21.4116  21.4728

     occupation numbers 
     1.0000   1.0000   1.0000   1.0000   1.0000   1.0000   1.0000   1.0000
     1.0000   1.0000   1.0000   1.0000   1.0000   1.0000   1.0000   1.0000
     1.0000   1.0000   1.0000   1.0000   1.0000   1.0000   1.0000   1.0000
     1.0000   1.0000   1.0000   1.0000   1.0000   1.0000   1.0000   1.0000
     1.0000   1.0000   1.0000   1.0000   1.0000   1.0000   1.0000   1.0000
     1.0000   1.0000   1.0000   1.0000   1.0000   1.0000   1.0000   1.0000
     1.0000   1.0000   1.0000   1.0000   1.0000   1.0000   1.0000   1.0000
     1.0000   1.0000   1.0000   1.0000   1.0000   1.0000   1.0000   1.0000
     1.0000   1.0000   1.0000   1.0000   1.0000   1.0000   1.0000   1.0000
     1.0000   1.0000   1.0000   1.0000   1.0000   1.0000   1.0000   1.0000
     1.0000   1.0000   1.0000   1.0000   1.0000   1.0000   1.0000   1.0000
     1.0000   1.0000   1.0000   1.0000   1.0000   1.0000   1.0000   1.0000
     1.0000   1.0000   1.0000   1.0000   1.0000   1.0000   1.0000   1.0000
     1.0000   1.0000   1.0000   1.0000   1.0000   1.0000   1.0000   1.0000
     1.0000   1.0000   1.0000   1.0000   1.0000   1.0000   1.0000   1.0000
     1.0000   1.0000   1.0000   1.0000   1.0000   1.0000   1.0000   1.0000
     1.0000   1.0000   1.0000   1.0000   1.0000   1.0000   1.0000   1.0000
     1.0000   1.0000   1.0000   1.0000   1.0000   1.0000   1.0000   1.0000
     1.0000   1.0000   1.0000   1.0000   1.0000   1.0000   1.0000   1.0000
     1.0000   1.0000   1.0000   1.0000   1.0000   1.0000   1.0000   1.0000
     1.0000   1.0000   1.0000   1.0000   1.0000   1.0000   1.0000   1.0000
     1.0000   1.0000   1.0000   1.0000   1.0000   1.0000   1.0000   1.0000
     1.0000   1.0000   1.0000   1.0000   1.0000   1.0000   1.0000   1.0000
     1.0000   1.0000   1.0000   1.0000   1.0000   1.0000   1.0000   1.0000
     1.0000   1.0000   1.0000   1.0000   1.0000   1.0000   1.0000   1.0000
     1.0000   1.0000   1.0000   1.0000   1.0000   1.0000   1.0000   1.0000
     1.0000   1.0000   1.0000   1.0000   1.0000   1.0000   1.0000   1.0000
     1.0000   1.0000   1.0000   1.0000   1.0000   1.0000   1.0000   1.0000
     1.0000   1.0000   1.0000   1.0000   1.0000   1.0000   1.0000   1.0000
     1.0000   1.0000   1.0000   1.0000   1.0000   1.0000   1.0000   1.0000
     1.0000   1.0000   1.0000   1.0000   1.0000   1.0000   1.0000   1.0000
     1.0000   1.0000   1.0000   1.0000   1.0000   1.0000   1.0000   1.0000
     1.0000   1.0000   1.0000   1.0000   1.0000   1.0000   1.0000   1.0000
     1.0000   1.0000   1.0000   1.0000   1.0000   1.0000   1.0000   1.0000
     1.0000   1.0000   1.0000   1.0000   1.0000   1.0000   1.0000   1.0000
     1.0000   1.0000   1.0000   1.0000   1.0000   1.0000   1.0000   1.0000
     1.0000   1.0000   1.0000   1.0000   1.0000   1.0000   1.0000   1.0000
     1.0000   1.0000   1.0000   1.0000   1.0000   1.0000   1.0000   1.0000
     1.0000   1.0000   1.0000   1.0000   1.0000   1.0000   1.0000   1.0000
     1.0000   1.0000   1.0000   1.0000   1.0000   1.0000   1.0000   1.0000
     1.0000   1.0000   1.0000   1.0000   1.0000   1.0000   1.0000   1.0000
     1.0000   1.0000   1.0000   1.0000   1.0000   1.0000   1.0000   1.0000
     1.0000   1.0000   1.0000   1.0000   1.0000   1.0000   1.0000   1.0000
     1.0000   1.0000   1.0000   1.0000   1.0000   1.0000   1.0000   1.0000
     1.0000   1.0000   1.0000   1.0000   1.0000   1.0000   1.0000   1.0000
     1.0000   1.0000   1.0000   1.0000   1.0000   1.0000   1.0000   1.0000
     1.0000   1.0000   1.0000   1.0000   1.0000   1.0000   1.0000   1.0000
     1.0000   1.0000   1.0000   1.0000   1.0000   1.0000   1.0000   1.0000
     1.0000   1.0000   1.0000   1.0000   1.0000   1.0000   1.0000   1.0000
     1.0000   1.0000   1.0000   1.0000   1.0000   1.0000   1.0000   1.0000
     1.0000   1.0000   1.0000   1.0000   1.0000   1.0000   1.0000   1.0000
     1.0000   1.0000   1.0000   1.0000   1.0000   1.0000   1.0000   1.0000
     1.0000   1.0000   1.0000   1.0000   1.0000   1.0000   1.0000   1.0000
     1.0000   1.0000   1.0000   1.0000   1.0000   1.0000   1.0000   1.0000
     1.0000   1.0000   1.0000   1.0000   1.0000   1.0000   1.0000   1.0000
     1.0000   1.0000   1.0000   1.0000   1.0000   1.0000   1.0000   1.0000
     1.0000   1.0000   1.0000   1.0000   1.0000   1.0000   1.0000   1.0000
     1.0000   1.0000   1.0000   1.0000   1.0000   1.0000   1.0000   1.0000
     1.0000   1.0000   1.0000   1.0000   1.0000   1.0000   1.0000   1.0000
     1.0000   1.0000   1.0000   1.0000   1.0000   1.0000   1.0000   1.0000
     1.0000   1.0000   1.0000   1.0000   1.0000   1.0000   1.0000   1.0000
     1.0000   1.0000   1.0000   1.0000   1.0000   1.0000   1.0000   1.0000
     1.0000   1.0000   1.0000   1.0000   1.0000   1.0000   1.0000   1.0000
     1.0000   1.0000   1.0000   1.0000   1.0000   1.0000   1.0000   1.0000
     1.0000   1.0000   1.0000   1.0000   1.0000   1.0000   1.0000   1.0000
     1.0000   1.0000   1.0000   1.0000   1.0000   1.0000   1.0000   1.0000
     1.0000   1.0000   1.0000   1.0000   1.0000   1.0000   1.0000   1.0000
     1.0000   1.0000   1.0000   1.0000   1.0000   1.0000   1.0000   1.0000
     1.0000   1.0000   1.0000   1.0000   1.0000   1.0000   1.0000   1.0000
     1.0000   1.0000   1.0000   1.0000   1.0000   1.0000   1.0000   1.0000
     1.0000   1.0000   1.0000   1.0000   1.0000   1.0000   1.0000   1.0000
     1.0000   1.0000   1.0000   1.0000   1.0000   1.0000   1.0000   1.0000
     1.0000   1.0000   1.0000   1.0000   1.0000   1.0000   1.0000   1.0000
     1.0000   1.0000   1.0000   1.0000   1.0000   1.0000   1.0000   1.0000
     1.0000   1.0000   1.0000   1.0000   1.0000   1.0000   1.0000   1.0000
     1.0000   1.0000   1.0000   1.0000   1.0000   1.0000   1.0000   1.0000
     1.0000   1.0000   1.0000   1.0000   1.0000   1.0000   1.0000   1.0000
     1.0000   1.0000   1.0000   1.0000   1.0000   1.0000   1.0000   1.0000
     1.0000   1.0000   1.0000   1.0000   1.0000   1.0000   1.0000   1.0000
     1.0000   1.0000   1.0000   1.0000   1.0000   1.0000   1.0000   1.0000
     1.0000   1.0000   1.0000   1.0000   1.0000   1.0000   1.0000   1.0000
     1.0000   1.0000   1.0000   1.0000   1.0000   1.0000   1.0000   1.0000
     1.0000   1.0000   1.0000   1.0000   1.0000   1.0000   1.0000   1.0000
     1.0000   1.0000   1.0000   1.0000   1.0000   1.0000   1.0000   1.0000
     1.0000   1.0000   1.0000   1.0000   1.0000   1.0000   0.9999   0.9998
     0.9998   0.9997   0.9996   0.9996   0.9996   0.9996   0.9996   0.9995
     0.9994   0.9994   0.9993   0.9993   0.9993   0.9988   0.9981   0.9981
     0.9976   0.9974   0.9935   0.9919   0.9912   0.9904   0.9886   0.9884
     0.9862   0.9860   0.9817   0.9802   0.9781   0.9779   0.9710   0.9584
     0.9508   0.9497   0.9403   0.9371   0.9104   0.9077   0.8231   0.6694
     0.4861   0.0779   0.0171   0.0057   0.0053   0.0025   0.0015   0.0012
     0.0009   0.0001   0.0001   0.0001   0.0000   0.0000   0.0000   0.0000
     0.0000   0.0000   0.0000   0.0000   0.0000   0.0000   0.0000   0.0000
     0.0000   0.0000   0.0000   0.0000   0.0000   0.0000   0.0000   0.0000
     0.0000   0.0000   0.0000   0.0000   0.0000   0.0000   0.0000   0.0000
     0.0000   0.0000   0.0000   0.0000   0.0000   0.0000   0.0000   0.0000
     0.0000   0.0000   0.0000   0.0000   0.0000   0.0000   0.0000   0.0000
     0.0000   0.0000   0.0000   0.0000   0.0000   0.0000   0.0000   0.0000
     0.0000   0.0000   0.0000   0.0000   0.0000   0.0000   0.0000   0.0000
     0.0000   0.0000   0.0000   0.0000   0.0000   0.0000   0.0000   0.0000

 ------ SPIN DOWN ----------


          k = 0.0000 0.0000 0.0000 (100519 PWs)   bands (ev):

   -69.1426 -69.1352 -69.1351 -69.0493 -69.0488 -69.0381 -69.0378 -69.0377
   -69.0374 -69.0360 -69.0359 -69.0354 -69.0172 -69.0168 -69.0166 -69.0166
   -69.0165 -69.0162 -69.0118 -69.0117 -69.0115 -69.0052 -69.0050 -69.0049
   -69.0048 -69.0048 -69.0045 -69.0045 -69.0045 -69.0042 -69.0024 -69.0021
   -69.0021 -69.0020 -69.0019 -69.0018 -68.6383 -68.6383 -68.6382 -68.6382
   -68.6378 -68.6377 -68.6372 -68.6372 -68.6372 -68.6371 -68.6370 -68.6370
   -68.6370 -68.6370 -68.6369 -68.6369 -68.6367 -68.6365 -68.6360 -68.6357
   -68.6356 -68.6340 -68.6335 -68.6334 -68.6244 -68.6244 -68.6242 -68.6242
   -68.6241 -68.6241 -68.6180 -68.6179 -68.6175 -68.6175 -68.6174 -68.6174
   -35.5047 -35.4329 -35.4327 -35.3335 -35.3330 -35.3034 -35.3026 -35.3024
   -35.2964 -35.2953 -35.2952 -35.2951 -35.2950 -35.2949 -35.2892 -35.2891
   -35.2653 -35.2605 -35.2604 -35.2603 -35.2601 -35.2444 -35.2442 -35.2417
   -35.2313 -35.2297 -35.2295 -35.2285 -35.2284 -35.2272 -35.2248 -35.2244
   -35.2244 -35.2243 -35.2225 -35.2224 -35.2223 -35.2223 -35.2201 -35.2059
   -35.2057 -35.2048 -35.2046 -35.1888 -35.1854 -35.1851 -35.1838 -35.1813
   -35.1756 -35.1740 -35.1739 -35.1723 -35.1707 -35.1707 -35.1689 -35.1685
   -35.1683 -35.1667 -35.1661 -35.1660 -35.1659 -35.1652 -35.1652 -35.1589
   -35.1564 -35.1563 -35.1544 -35.1524 -35.1524 -35.1523 -35.1509 -35.1507
   -35.1061 -35.0949 -35.0948 -35.0661 -35.0587 -35.0493 -35.0489 -35.0447
   -35.0445 -35.0406 -35.0404 -35.0402 -35.0370 -35.0369 -35.0311 -35.0280
   -35.0262 -35.0260 -35.0210 -35.0206 -35.0204 -35.0181 -35.0179 -35.0175
   -35.0165 -35.0164 -35.0134 -35.0133 -35.0117 -35.0091 -35.0085 -35.0080
   -35.0080 -35.0063 -34.9989 -34.9989 -34.8308 -34.8306 -34.8293 -34.8292
   -34.8292 -34.8292 -34.8280 -34.8280 -34.8270 -34.8270 -34.8267 -34.8262
   -34.8262 -34.8259 -34.8258 -34.8257 -34.8251 -34.8240 -34.8218 -34.8217
   -34.8211 -34.8210 -34.8187 -34.8180 -34.8154 -34.8149 -34.8148 -34.8106
   -34.8105 -34.8082 -34.8040 -34.8008 -34.8005 -34.7988 -34.7985 -34.7954
   -34.7694 -34.7693 -34.7659 -34.7654 -34.7653 -34.7635 -34.7635 -34.7632
   -34.7626 -34.7624 -34.7609 -34.7602 -34.7589 -34.7588 -34.7583 -34.7582
   -34.7574 -34.7572 -34.7568 -34.7568 -34.7560 -34.7558 -34.7532 -34.7530
   -34.7516 -34.7514 -34.7514 -34.7514 -34.7490 -34.7489 -34.7477 -34.7474
   -34.7468 -34.7465 -34.7461 -34.7437 -34.7039 -34.7016 -34.6990 -34.6968
   -34.6959 -34.6952 -34.6922 -34.6921 -34.6875 -34.6874 -34.6868 -34.6867
   -34.6852 -34.6850 -34.6841 -34.6839 -34.6835 -34.6833 -34.6830 -34.6757
   -34.6757 -34.6754 -34.6750 -34.6744 -34.6742 -34.6728 -34.6698 -34.6696
   -34.6696 -34.6695 -34.6644 -34.6641 -34.6636 -34.6633 -34.6609 -34.6607
     3.1946   3.8197   4.3258   4.3260   4.3377   4.3498   4.4159   4.4327
     4.4328   4.8763   5.0025   5.1360   5.1362   5.1410   5.1413   5.2152
     5.2191   5.2197   5.2198   5.2422   5.2423   5.3187   5.3799   5.3802
     5.4316   5.6981   5.7050   5.8011   5.8095   5.8161   5.8164   5.8294
     5.8296   5.8459   6.1938   6.2108   8.4320   9.6468   9.6471   9.6617
    10.2240  10.2774  10.2775  10.2878  10.2879  10.5914  10.6329  10.6330
    10.6347  10.6368  10.6496  10.6497  10.6520  10.6523  10.6965  10.7484
    10.8034  10.8049  10.8049  10.8209  10.8209  10.9795  10.9797  10.9988
    11.0085  11.0086  11.0614  11.1130  11.1131  11.1224  11.2351  11.4613
    11.4962  11.4962  11.4982  11.5013  11.5014  11.5057  11.5066  11.5285
    11.5290  11.7882  11.7884  11.8095  11.8098  12.0576  12.1956  12.1968
    12.2529  12.2531  12.2611  12.2612  12.2664  12.2687  12.2721  12.3016
    12.3016  12.3066  12.3066  12.4761  12.4762  12.4883  12.5322  12.6061
    12.6477  12.6531  12.6531  12.6617  12.6618  12.7197  12.7618  12.7620
    12.8908  12.9008  12.9009  12.9632  12.9667  12.9668  12.9768  12.9774
    12.9774  12.9815  12.9815  12.9902  12.9904  13.1932  13.2951  13.3015
    13.3077  13.3080  13.3112  13.3115  13.3392  13.3394  13.4708  13.4763
    13.4842  13.4844  13.4935  13.4938  13.5964  13.8150  13.8151  13.8163
    14.1227  14.5005  14.5006  14.5141  14.5143  14.5489  14.5492  14.6123
    14.6481  14.6482  14.6872  14.6876  14.7070  14.7075  14.7512  14.7564
    14.7565  14.7609  14.7645  14.7645  14.7794  14.8679  14.8680  14.8748
    14.8790  14.8852  14.8853  14.9049  14.9140  14.9167  14.9167  14.9297
    14.9297  14.9362  14.9363  14.9662  14.9992  14.9993  15.0706  15.0707
    15.0721  15.0865  15.1000  15.1000  15.1078  15.1078  15.1106  15.1373
    15.1671  15.1673  15.1690  15.1691  15.1742  15.1793  15.1793  15.1936
    15.2010  15.2070  15.2070  15.2427  15.2646  15.4159  15.4162  15.4466
    15.4627  15.4628  15.4655  15.4656  15.4658  15.4739  15.5255  15.5451
    15.5452  15.5500  15.5500  15.5793  15.5940  15.5942  15.6509  15.6511
    15.6557  15.6558  15.7778  15.7779  15.8125  15.8127  15.8340  15.9075
    15.9076  15.9649  15.9801  15.9801  16.0101  16.0101  16.0120  16.0128
    16.0211  16.0233  16.0234  16.1323  16.1383  16.1384  16.1504  16.1504
    16.1574  16.1672  16.1672  16.1678  16.1710  16.1711  16.1767  16.2127
    16.2213  16.2215  16.2664  16.2665  16.2672  16.2673  16.2719  16.2793
    16.4710  16.4710  16.4976  16.5226  16.5226  16.5262  16.5263  16.5426
    16.5450  16.6331  16.6797  16.6798  16.7075  16.7109  16.7110  16.7162
    16.7165  16.7266  16.7267  16.7363  16.7365  16.7372  16.7373  16.8091
    16.8092  16.8174  16.8206  16.8287  16.8494  16.8495  16.8779  16.8922
    16.9347  16.9396  16.9613  16.9816  16.9816  16.9952  16.9953  17.0461
    17.0462  17.0477  17.0499  17.0500  17.0624  17.0625  17.0675  17.0687
    17.0741  17.0742  17.0832  17.0833  17.0931  17.0932  17.1012  17.1125
    17.1182  17.1183  17.1434  17.1435  17.1782  17.1783  17.2539  17.2858
    17.2909  17.2911  17.3003  17.3004  17.3029  17.3242  17.3242  17.3579
    17.4421  17.4422  17.4423  17.4545  17.4598  17.4665  17.4666  17.4826
    17.4839  17.4935  17.4937  17.5069  17.5107  17.5108  17.5491  17.5492
    17.5533  17.5784  17.5856  17.7005  17.7071  17.7071  17.7631  17.8261
    17.8279  17.8281  17.8282  17.8283  17.8385  17.8387  17.8665  17.8665
    17.9220  17.9309  17.9310  17.9795  17.9795  17.9813  17.9903  18.0116
    18.0117  18.0157  18.0157  18.0190  18.0230  18.0230  18.0265  18.0363
    18.0363  18.0486  18.0487  18.0497  18.0754  18.0777  18.0777  18.0808
    18.0808  18.0861  18.0940  18.0969  18.0991  18.0991  18.1188  18.1188
    18.1242  18.1243  18.1254  18.1316  18.1363  18.1380  18.1380  18.1399
    18.1399  18.1463  18.2351  18.2352  18.2516  18.2885  18.2885  18.2942
    18.2984  18.3058  18.3058  18.3132  18.3164  18.3169  18.3169  18.3190
    18.3190  18.3809  18.3926  18.3928  18.4198  18.4198  18.5805  18.5806
    18.5854  18.5855  18.6607  18.6806  18.8138  18.8292  18.8491  18.9318
    18.9318  19.3501  19.3834  19.3836  19.3855  19.3857  19.3920  19.3954
    19.4133  19.4483  19.4484  19.4516  19.4518  19.4717  19.4855  19.5355
    19.5570  19.5693  19.5724  19.5725  19.5993  19.6018  19.6043  19.6046
    19.6136  19.6138  19.7329  19.7331  19.7422  19.7558  19.7558  19.7644
    19.8220  19.8339  19.8340  19.8409  19.8411  19.9023  19.9225  19.9767
    19.9769  19.9831  19.9890  19.9892  19.9938  19.9939  20.0130  20.4003
    20.4005  20.4242  20.4244  20.6752  20.6753  20.6935  20.6935  20.6982
    20.6995  20.9026  20.9587  21.1080  21.1082  21.1276  21.3657  21.3657
    21.3710  21.6156  21.6942  21.6950  21.7119  21.7135  21.7232  21.7282

     occupation numbers 
     1.0000   1.0000   1.0000   1.0000   1.0000   1.0000   1.0000   1.0000
     1.0000   1.0000   1.0000   1.0000   1.0000   1.0000   1.0000   1.0000
     1.0000   1.0000   1.0000   1.0000   1.0000   1.0000   1.0000   1.0000
     1.0000   1.0000   1.0000   1.0000   1.0000   1.0000   1.0000   1.0000
     1.0000   1.0000   1.0000   1.0000   1.0000   1.0000   1.0000   1.0000
     1.0000   1.0000   1.0000   1.0000   1.0000   1.0000   1.0000   1.0000
     1.0000   1.0000   1.0000   1.0000   1.0000   1.0000   1.0000   1.0000
     1.0000   1.0000   1.0000   1.0000   1.0000   1.0000   1.0000   1.0000
     1.0000   1.0000   1.0000   1.0000   1.0000   1.0000   1.0000   1.0000
     1.0000   1.0000   1.0000   1.0000   1.0000   1.0000   1.0000   1.0000
     1.0000   1.0000   1.0000   1.0000   1.0000   1.0000   1.0000   1.0000
     1.0000   1.0000   1.0000   1.0000   1.0000   1.0000   1.0000   1.0000
     1.0000   1.0000   1.0000   1.0000   1.0000   1.0000   1.0000   1.0000
     1.0000   1.0000   1.0000   1.0000   1.0000   1.0000   1.0000   1.0000
     1.0000   1.0000   1.0000   1.0000   1.0000   1.0000   1.0000   1.0000
     1.0000   1.0000   1.0000   1.0000   1.0000   1.0000   1.0000   1.0000
     1.0000   1.0000   1.0000   1.0000   1.0000   1.0000   1.0000   1.0000
     1.0000   1.0000   1.0000   1.0000   1.0000   1.0000   1.0000   1.0000
     1.0000   1.0000   1.0000   1.0000   1.0000   1.0000   1.0000   1.0000
     1.0000   1.0000   1.0000   1.0000   1.0000   1.0000   1.0000   1.0000
     1.0000   1.0000   1.0000   1.0000   1.0000   1.0000   1.0000   1.0000
     1.0000   1.0000   1.0000   1.0000   1.0000   1.0000   1.0000   1.0000
     1.0000   1.0000   1.0000   1.0000   1.0000   1.0000   1.0000   1.0000
     1.0000   1.0000   1.0000   1.0000   1.0000   1.0000   1.0000   1.0000
     1.0000   1.0000   1.0000   1.0000   1.0000   1.0000   1.0000   1.0000
     1.0000   1.0000   1.0000   1.0000   1.0000   1.0000   1.0000   1.0000
     1.0000   1.0000   1.0000   1.0000   1.0000   1.0000   1.0000   1.0000
     1.0000   1.0000   1.0000   1.0000   1.0000   1.0000   1.0000   1.0000
     1.0000   1.0000   1.0000   1.0000   1.0000   1.0000   1.0000   1.0000
     1.0000   1.0000   1.0000   1.0000   1.0000   1.0000   1.0000   1.0000
     1.0000   1.0000   1.0000   1.0000   1.0000   1.0000   1.0000   1.0000
     1.0000   1.0000   1.0000   1.0000   1.0000   1.0000   1.0000   1.0000
     1.0000   1.0000   1.0000   1.0000   1.0000   1.0000   1.0000   1.0000
     1.0000   1.0000   1.0000   1.0000   1.0000   1.0000   1.0000   1.0000
     1.0000   1.0000   1.0000   1.0000   1.0000   1.0000   1.0000   1.0000
     1.0000   1.0000   1.0000   1.0000   1.0000   1.0000   1.0000   1.0000
     1.0000   1.0000   1.0000   1.0000   1.0000   1.0000   1.0000   1.0000
     1.0000   1.0000   1.0000   1.0000   1.0000   1.0000   1.0000   1.0000
     1.0000   1.0000   1.0000   1.0000   1.0000   1.0000   1.0000   1.0000
     1.0000   1.0000   1.0000   1.0000   1.0000   1.0000   1.0000   1.0000
     1.0000   1.0000   1.0000   1.0000   1.0000   1.0000   1.0000   1.0000
     1.0000   1.0000   1.0000   1.0000   1.0000   1.0000   1.0000   1.0000
     1.0000   1.0000   1.0000   1.0000   1.0000   1.0000   1.0000   1.0000
     1.0000   1.0000   1.0000   1.0000   1.0000   1.0000   1.0000   1.0000
     1.0000   1.0000   1.0000   1.0000   1.0000   1.0000   1.0000   1.0000
     1.0000   1.0000   1.0000   1.0000   1.0000   1.0000   1.0000   1.0000
     1.0000   1.0000   1.0000   1.0000   1.0000   1.0000   1.0000   1.0000
     1.0000   1.0000   1.0000   1.0000   1.0000   1.0000   1.0000   1.0000
     1.0000   1.0000   1.0000   1.0000   1.0000   1.0000   1.0000   1.0000
     1.0000   1.0000   1.0000   1.0000   1.0000   1.0000   1.0000   1.0000
     1.0000   1.0000   1.0000   1.0000   1.0000   1.0000   1.0000   1.0000
     1.0000   1.0000   1.0000   1.0000   1.0000   1.0000   1.0000   1.0000
     1.0000   1.0000   1.0000   1.0000   1.0000   1.0000   1.0000   1.0000
     1.0000   1.0000   1.0000   1.0000   1.0000   1.0000   1.0000   1.0000
     1.0000   1.0000   1.0000   1.0000   1.0000   1.0000   1.0000   1.0000
     1.0000   1.0000   1.0000   1.0000   1.0000   1.0000   1.0000   1.0000
     1.0000   1.0000   1.0000   1.0000   1.0000   1.0000   1.0000   1.0000
     1.0000   1.0000   1.0000   1.0000   1.0000   1.0000   1.0000   1.0000
     1.0000   1.0000   1.0000   1.0000   1.0000   1.0000   1.0000   1.0000
     1.0000   1.0000   1.0000   1.0000   1.0000   1.0000   1.0000   1.0000
     1.0000   1.0000   1.0000   1.0000   1.0000   1.0000   1.0000   1.0000
     1.0000   1.0000   1.0000   1.0000   1.0000   1.0000   1.0000   1.0000
     1.0000   1.0000   1.0000   1.0000   1.0000   1.0000   1.0000   1.0000
     1.0000   1.0000   1.0000   1.0000   1.0000   1.0000   1.0000   1.0000
     1.0000   1.0000   1.0000   1.0000   1.0000   1.0000   1.0000   1.0000
     1.0000   1.0000   1.0000   1.0000   1.0000   1.0000   1.0000   1.0000
     1.0000   1.0000   1.0000   1.0000   1.0000   1.0000   1.0000   1.0000
     1.0000   1.0000   1.0000   1.0000   1.0000   1.0000   1.0000   1.0000
     1.0000   1.0000   1.0000   1.0000   1.0000   1.0000   1.0000   1.0000
     0.9999   0.9999   0.9999   0.9998   0.9998   0.9998   0.9998   0.9997
     0.9997   0.9986   0.9971   0.9971   0.9955   0.9952   0.9952   0.9948
     0.9948   0.9940   0.9940   0.9931   0.9930   0.9930   0.9930   0.9813
     0.9813   0.9793   0.9784   0.9762   0.9695   0.9694   0.9577   0.9506
     0.9235   0.9198   0.9016   0.8821   0.8821   0.8676   0.8675   0.8023
     0.8023   0.8001   0.7969   0.7968   0.7780   0.7779   0.7701   0.7681
     0.7595   0.7594   0.7446   0.7445   0.7278   0.7276   0.7136   0.6932
     0.6828   0.6826   0.6347   0.6346   0.5650   0.5648   0.4091   0.3463
     0.3364   0.3361   0.3190   0.3187   0.3141   0.2759   0.2759   0.2205
     0.1135   0.1134   0.1134   0.1017   0.0969   0.0910   0.0909   0.0781
     0.0771   0.0701   0.0700   0.0612   0.0589   0.0588   0.0389   0.0388
     0.0371   0.0277   0.0254   0.0054   0.0049   0.0049   0.0020   0.0007
     0.0007   0.0007   0.0007   0.0007   0.0005   0.0005   0.0003   0.0003
     0.0001   0.0001   0.0001   0.0000   0.0000   0.0000   0.0000   0.0000
     0.0000   0.0000   0.0000   0.0000   0.0000   0.0000   0.0000   0.0000
     0.0000   0.0000   0.0000   0.0000   0.0000   0.0000   0.0000   0.0000
     0.0000   0.0000   0.0000   0.0000   0.0000   0.0000   0.0000   0.0000
     0.0000   0.0000   0.0000   0.0000   0.0000   0.0000   0.0000   0.0000
     0.0000   0.0000   0.0000   0.0000   0.0000   0.0000   0.0000   0.0000
     0.0000   0.0000   0.0000   0.0000   0.0000   0.0000   0.0000   0.0000
     0.0000   0.0000   0.0000   0.0000   0.0000   0.0000   0.0000   0.0000
     0.0000   0.0000   0.0000   0.0000   0.0000   0.0000   0.0000   0.0000
     0.0000   0.0000   0.0000   0.0000   0.0000   0.0000   0.0000   0.0000
     0.0000   0.0000   0.0000   0.0000   0.0000   0.0000   0.0000   0.0000
     0.0000   0.0000   0.0000   0.0000   0.0000   0.0000   0.0000   0.0000
     0.0000   0.0000   0.0000   0.0000   0.0000   0.0000   0.0000   0.0000
     0.0000   0.0000   0.0000   0.0000   0.0000   0.0000   0.0000   0.0000
     0.0000   0.0000   0.0000   0.0000   0.0000   0.0000   0.0000   0.0000
     0.0000   0.0000   0.0000   0.0000   0.0000   0.0000   0.0000   0.0000
     0.0000   0.0000   0.0000   0.0000   0.0000   0.0000   0.0000   0.0000
     0.0000   0.0000   0.0000   0.0000   0.0000   0.0000   0.0000   0.0000

          k = 0.0000 0.0000 0.2850 (100651 PWs)   bands (ev):

   -69.1426 -69.1352 -69.1351 -69.0493 -69.0488 -69.0381 -69.0378 -69.0377
   -69.0374 -69.0360 -69.0359 -69.0354 -69.0172 -69.0168 -69.0166 -69.0166
   -69.0165 -69.0162 -69.0118 -69.0117 -69.0115 -69.0052 -69.0050 -69.0049
   -69.0048 -69.0048 -69.0045 -69.0045 -69.0045 -69.0042 -69.0024 -69.0021
   -69.0021 -69.0020 -69.0019 -69.0018 -68.6383 -68.6383 -68.6382 -68.6381
   -68.6378 -68.6377 -68.6372 -68.6372 -68.6372 -68.6371 -68.6370 -68.6370
   -68.6370 -68.6370 -68.6369 -68.6369 -68.6367 -68.6365 -68.6360 -68.6357
   -68.6356 -68.6340 -68.6335 -68.6334 -68.6244 -68.6244 -68.6242 -68.6242
   -68.6241 -68.6241 -68.6180 -68.6179 -68.6175 -68.6175 -68.6174 -68.6174
   -35.5047 -35.4329 -35.4328 -35.3334 -35.3330 -35.3034 -35.3026 -35.3024
   -35.2964 -35.2956 -35.2955 -35.2949 -35.2947 -35.2946 -35.2892 -35.2891
   -35.2654 -35.2607 -35.2605 -35.2602 -35.2600 -35.2445 -35.2442 -35.2416
   -35.2314 -35.2300 -35.2299 -35.2276 -35.2276 -35.2269 -35.2251 -35.2247
   -35.2247 -35.2246 -35.2227 -35.2227 -35.2222 -35.2221 -35.2199 -35.2060
   -35.2058 -35.2047 -35.2045 -35.1889 -35.1854 -35.1851 -35.1838 -35.1813
   -35.1752 -35.1741 -35.1740 -35.1724 -35.1703 -35.1703 -35.1690 -35.1688
   -35.1686 -35.1669 -35.1664 -35.1663 -35.1658 -35.1651 -35.1650 -35.1589
   -35.1563 -35.1562 -35.1549 -35.1527 -35.1526 -35.1521 -35.1508 -35.1506
   -35.1062 -35.0951 -35.0950 -35.0664 -35.0581 -35.0494 -35.0491 -35.0463
   -35.0461 -35.0407 -35.0404 -35.0401 -35.0348 -35.0347 -35.0310 -35.0288
   -35.0263 -35.0261 -35.0232 -35.0231 -35.0211 -35.0182 -35.0182 -35.0157
   -35.0139 -35.0137 -35.0116 -35.0114 -35.0113 -35.0092 -35.0088 -35.0088
   -35.0085 -35.0073 -35.0008 -35.0008 -34.8352 -34.8306 -34.8306 -34.8282
   -34.8281 -34.8274 -34.8273 -34.8271 -34.8271 -34.8270 -34.8269 -34.8261
   -34.8261 -34.8258 -34.8257 -34.8256 -34.8239 -34.8232 -34.8222 -34.8221
   -34.8212 -34.8212 -34.8191 -34.8187 -34.8146 -34.8144 -34.8144 -34.8113
   -34.8112 -34.8094 -34.8032 -34.8007 -34.8004 -34.7991 -34.7988 -34.7966
   -34.7679 -34.7678 -34.7655 -34.7647 -34.7646 -34.7644 -34.7631 -34.7631
   -34.7618 -34.7610 -34.7609 -34.7598 -34.7589 -34.7589 -34.7588 -34.7588
   -34.7583 -34.7582 -34.7578 -34.7570 -34.7560 -34.7559 -34.7539 -34.7538
   -34.7529 -34.7528 -34.7526 -34.7514 -34.7483 -34.7480 -34.7478 -34.7470
   -34.7469 -34.7463 -34.7461 -34.7423 -34.7041 -34.7011 -34.6992 -34.6968
   -34.6962 -34.6950 -34.6922 -34.6922 -34.6874 -34.6874 -34.6869 -34.6868
   -34.6852 -34.6850 -34.6842 -34.6840 -34.6835 -34.6833 -34.6830 -34.6757
   -34.6757 -34.6754 -34.6750 -34.6744 -34.6742 -34.6729 -34.6698 -34.6697
   -34.6696 -34.6695 -34.6644 -34.6642 -34.6635 -34.6632 -34.6609 -34.6608
     3.2616   3.7616   4.0193   4.3851   4.3853   4.4755   4.4920   4.4921
     4.6230   4.8097   4.8215   4.8217   4.9106   4.9257   4.9259   5.2370
     5.3865   5.4175   5.4177   5.4350   5.4353   5.4640   5.4832   5.4957
     5.4958   5.6034   5.6368   5.6712   5.6735   5.6737   5.8747   5.9051
     5.9122   5.9125   6.0745   6.3031   8.3283   9.7180   9.7183   9.7320
    10.0053  10.0056  10.1646  10.1830  10.1946  10.1948  10.1954  10.2098
    10.2101  10.5292  10.7170  10.7173  10.8659  10.8963  10.8966  10.9111
    10.9112  10.9230  11.0163  11.0164  11.0327  11.0382  11.0382  11.0465
    11.0667  11.0668  11.1160  11.1160  11.1186  11.1920  11.1925  11.3184
    11.3879  11.3881  11.3983  11.4954  11.4955  11.6301  11.7809  11.7818
    11.7874  11.8719  11.8719  11.9467  12.1068  12.1072  12.1151  12.2968
    12.2977  12.2980  12.3439  12.3440  12.3453  12.3827  12.3975  12.3975
    12.4055  12.4056  12.4447  12.4678  12.4680  12.4793  12.5043  12.5260
    12.5261  12.5329  12.6699  12.7017  12.7166  12.7166  12.7316  12.7317
    12.8099  12.8101  12.8893  12.8894  12.8963  12.9027  12.9141  12.9141
    12.9631  12.9751  12.9752  13.1059  13.1305  13.1306  13.1963  13.2169
    13.2172  13.2264  13.2696  13.2737  13.2738  13.2837  13.2840  13.3081
    13.3168  13.3170  13.4542  13.4613  13.4615  13.7461  13.7499  13.7500
    14.0924  14.4614  14.4618  14.5559  14.5561  14.6254  14.6286  14.6291
    14.6711  14.6712  14.7075  14.7080  14.7081  14.7194  14.7195  14.7373
    14.7374  14.7956  14.7957  14.8016  14.8091  14.8160  14.8160  14.8840
    14.8841  14.8845  14.9126  14.9126  14.9373  14.9397  14.9397  14.9668
    14.9706  14.9707  14.9802  14.9802  14.9985  15.0182  15.0187  15.0188
    15.0258  15.0292  15.0293  15.0352  15.0616  15.0685  15.0685  15.1334
    15.1335  15.1533  15.1556  15.1556  15.1618  15.1751  15.2158  15.2176
    15.2177  15.2701  15.2701  15.2905  15.2922  15.2923  15.3080  15.3570
    15.3690  15.3690  15.3931  15.4019  15.4020  15.4852  15.5218  15.5220
    15.5513  15.5514  15.6111  15.6168  15.6168  15.6626  15.6627  15.6688
    15.7609  15.7749  15.7750  15.8167  15.8167  15.8209  15.9224  15.9224
    15.9830  15.9831  15.9930  15.9957  15.9958  16.0042  16.0043  16.0142
    16.0259  16.0259  16.0344  16.0671  16.0671  16.1008  16.1009  16.1108
    16.1652  16.1851  16.1851  16.1955  16.2455  16.2455  16.2514  16.2828
    16.2829  16.2829  16.2841  16.2841  16.3035  16.3762  16.3862  16.3862
    16.4545  16.4545  16.4720  16.4720  16.4799  16.4813  16.5777  16.5777
    16.5950  16.6280  16.7033  16.7034  16.7099  16.7100  16.7160  16.7228
    16.7229  16.7384  16.7384  16.7389  16.7528  16.7566  16.7568  16.7639
    16.8163  16.8172  16.8172  16.8413  16.8413  16.8466  16.8902  16.9230
    16.9279  16.9365  16.9365  16.9602  16.9717  16.9717  16.9913  17.0117
    17.0118  17.0180  17.0181  17.0190  17.0289  17.0290  17.0348  17.0441
    17.0443  17.0548  17.0564  17.0564  17.0629  17.0670  17.0670  17.0926
    17.0927  17.1007  17.1079  17.1079  17.1987  17.1988  17.2168  17.2384
    17.2534  17.2535  17.2687  17.2689  17.2816  17.2817  17.2864  17.2886
    17.3936  17.4421  17.4422  17.4541  17.4839  17.4840  17.4846  17.4860
    17.5015  17.5016  17.5023  17.5153  17.5153  17.5178  17.5246  17.5278
    17.5279  17.5573  17.6453  17.6524  17.6525  17.7198  17.7817  17.7818
    17.7819  17.8473  17.8473  17.8487  17.8619  17.8716  17.8716  17.8997
    17.8998  17.9430  17.9431  17.9658  17.9761  17.9761  18.0105  18.0106
    18.0229  18.0240  18.0240  18.0319  18.0392  18.0393  18.0406  18.0406
    18.0428  18.0474  18.0474  18.0598  18.0664  18.0666  18.0805  18.0805
    18.0859  18.0859  18.0911  18.0964  18.0971  18.1014  18.1015  18.1119
    18.1119  18.1135  18.1186  18.1212  18.1212  18.1331  18.1575  18.1575
    18.1632  18.1859  18.2277  18.2277  18.2402  18.2565  18.2694  18.2694
    18.3557  18.3557  18.3608  18.4025  18.4234  18.4235  18.4263  18.4386
    18.4433  18.4434  18.4453  18.4454  18.4497  18.4584  18.4585  18.5019
    18.5020  18.6410  18.6822  18.6824  18.8484  18.9179  18.9667  19.0049
    19.0049  19.2305  19.2434  19.2435  19.2476  19.2743  19.2745  19.2855
    19.2859  19.2860  19.2877  19.3918  19.3953  19.3953  19.4932  19.5200
    19.5200  19.5345  19.5550  19.5793  19.6084  19.6085  19.6190  19.6345
    19.6346  19.6522  19.6522  19.6723  19.6903  19.6936  19.6938  19.7907
    19.8538  19.8541  19.9021  19.9325  19.9507  19.9509  19.9989  20.0086
    20.0086  20.0371  20.0372  20.0792  20.0794  20.1148  20.2780  20.3090
    20.3092  20.3211  20.5257  20.5258  20.5559  20.6490  20.6491  20.6589
    20.6714  20.7774  20.7776  20.8373  20.8375  20.9022  21.2735  21.2740
    21.3205  21.3205  21.5732  21.6751  21.6844  21.6846  21.7704  21.8063

     occupation numbers 
     1.0000   1.0000   1.0000   1.0000   1.0000   1.0000   1.0000   1.0000
     1.0000   1.0000   1.0000   1.0000   1.0000   1.0000   1.0000   1.0000
     1.0000   1.0000   1.0000   1.0000   1.0000   1.0000   1.0000   1.0000
     1.0000   1.0000   1.0000   1.0000   1.0000   1.0000   1.0000   1.0000
     1.0000   1.0000   1.0000   1.0000   1.0000   1.0000   1.0000   1.0000
     1.0000   1.0000   1.0000   1.0000   1.0000   1.0000   1.0000   1.0000
     1.0000   1.0000   1.0000   1.0000   1.0000   1.0000   1.0000   1.0000
     1.0000   1.0000   1.0000   1.0000   1.0000   1.0000   1.0000   1.0000
     1.0000   1.0000   1.0000   1.0000   1.0000   1.0000   1.0000   1.0000
     1.0000   1.0000   1.0000   1.0000   1.0000   1.0000   1.0000   1.0000
     1.0000   1.0000   1.0000   1.0000   1.0000   1.0000   1.0000   1.0000
     1.0000   1.0000   1.0000   1.0000   1.0000   1.0000   1.0000   1.0000
     1.0000   1.0000   1.0000   1.0000   1.0000   1.0000   1.0000   1.0000
     1.0000   1.0000   1.0000   1.0000   1.0000   1.0000   1.0000   1.0000
     1.0000   1.0000   1.0000   1.0000   1.0000   1.0000   1.0000   1.0000
     1.0000   1.0000   1.0000   1.0000   1.0000   1.0000   1.0000   1.0000
     1.0000   1.0000   1.0000   1.0000   1.0000   1.0000   1.0000   1.0000
     1.0000   1.0000   1.0000   1.0000   1.0000   1.0000   1.0000   1.0000
     1.0000   1.0000   1.0000   1.0000   1.0000   1.0000   1.0000   1.0000
     1.0000   1.0000   1.0000   1.0000   1.0000   1.0000   1.0000   1.0000
     1.0000   1.0000   1.0000   1.0000   1.0000   1.0000   1.0000   1.0000
     1.0000   1.0000   1.0000   1.0000   1.0000   1.0000   1.0000   1.0000
     1.0000   1.0000   1.0000   1.0000   1.0000   1.0000   1.0000   1.0000
     1.0000   1.0000   1.0000   1.0000   1.0000   1.0000   1.0000   1.0000
     1.0000   1.0000   1.0000   1.0000   1.0000   1.0000   1.0000   1.0000
     1.0000   1.0000   1.0000   1.0000   1.0000   1.0000   1.0000   1.0000
     1.0000   1.0000   1.0000   1.0000   1.0000   1.0000   1.0000   1.0000
     1.0000   1.0000   1.0000   1.0000   1.0000   1.0000   1.0000   1.0000
     1.0000   1.0000   1.0000   1.0000   1.0000   1.0000   1.0000   1.0000
     1.0000   1.0000   1.0000   1.0000   1.0000   1.0000   1.0000   1.0000
     1.0000   1.0000   1.0000   1.0000   1.0000   1.0000   1.0000   1.0000
     1.0000   1.0000   1.0000   1.0000   1.0000   1.0000   1.0000   1.0000
     1.0000   1.0000   1.0000   1.0000   1.0000   1.0000   1.0000   1.0000
     1.0000   1.0000   1.0000   1.0000   1.0000   1.0000   1.0000   1.0000
     1.0000   1.0000   1.0000   1.0000   1.0000   1.0000   1.0000   1.0000
     1.0000   1.0000   1.0000   1.0000   1.0000   1.0000   1.0000   1.0000
     1.0000   1.0000   1.0000   1.0000   1.0000   1.0000   1.0000   1.0000
     1.0000   1.0000   1.0000   1.0000   1.0000   1.0000   1.0000   1.0000
     1.0000   1.0000   1.0000   1.0000   1.0000   1.0000   1.0000   1.0000
     1.0000   1.0000   1.0000   1.0000   1.0000   1.0000   1.0000   1.0000
     1.0000   1.0000   1.0000   1.0000   1.0000   1.0000   1.0000   1.0000
     1.0000   1.0000   1.0000   1.0000   1.0000   1.0000   1.0000   1.0000
     1.0000   1.0000   1.0000   1.0000   1.0000   1.0000   1.0000   1.0000
     1.0000   1.0000   1.0000   1.0000   1.0000   1.0000   1.0000   1.0000
     1.0000   1.0000   1.0000   1.0000   1.0000   1.0000   1.0000   1.0000
     1.0000   1.0000   1.0000   1.0000   1.0000   1.0000   1.0000   1.0000
     1.0000   1.0000   1.0000   1.0000   1.0000   1.0000   1.0000   1.0000
     1.0000   1.0000   1.0000   1.0000   1.0000   1.0000   1.0000   1.0000
     1.0000   1.0000   1.0000   1.0000   1.0000   1.0000   1.0000   1.0000
     1.0000   1.0000   1.0000   1.0000   1.0000   1.0000   1.0000   1.0000
     1.0000   1.0000   1.0000   1.0000   1.0000   1.0000   1.0000   1.0000
     1.0000   1.0000   1.0000   1.0000   1.0000   1.0000   1.0000   1.0000
     1.0000   1.0000   1.0000   1.0000   1.0000   1.0000   1.0000   1.0000
     1.0000   1.0000   1.0000   1.0000   1.0000   1.0000   1.0000   1.0000
     1.0000   1.0000   1.0000   1.0000   1.0000   1.0000   1.0000   1.0000
     1.0000   1.0000   1.0000   1.0000   1.0000   1.0000   1.0000   1.0000
     1.0000   1.0000   1.0000   1.0000   1.0000   1.0000   1.0000   1.0000
     1.0000   1.0000   1.0000   1.0000   1.0000   1.0000   1.0000   1.0000
     1.0000   1.0000   1.0000   1.0000   1.0000   1.0000   1.0000   1.0000
     1.0000   1.0000   1.0000   1.0000   1.0000   1.0000   1.0000   1.0000
     1.0000   1.0000   1.0000   1.0000   1.0000   1.0000   1.0000   1.0000
     1.0000   1.0000   1.0000   1.0000   1.0000   1.0000   1.0000   1.0000
     1.0000   1.0000   1.0000   1.0000   1.0000   1.0000   1.0000   1.0000
     1.0000   1.0000   1.0000   1.0000   1.0000   1.0000   1.0000   1.0000
     1.0000   1.0000   1.0000   1.0000   1.0000   1.0000   1.0000   1.0000
     1.0000   1.0000   1.0000   1.0000   1.0000   1.0000   1.0000   1.0000
     1.0000   1.0000   1.0000   1.0000   1.0000   1.0000   1.0000   1.0000
     1.0000   1.0000   1.0000   1.0000   1.0000   1.0000   1.0000   1.0000
     1.0000   1.0000   1.0000   1.0000   1.0000   1.0000   1.0000   1.0000
     1.0000   1.0000   0.9999   0.9999   0.9999   0.9999   0.9995   0.9995
     0.9993   0.9987   0.9958   0.9958   0.9953   0.9953   0.9949   0.9943
     0.9943   0.9929   0.9928   0.9928   0.9912   0.9907   0.9907   0.9897
     0.9796   0.9793   0.9793   0.9722   0.9722   0.9704   0.9516   0.9319
     0.9285   0.9222   0.9222   0.9026   0.8920   0.8919   0.8719   0.8482
     0.8482   0.8404   0.8403   0.8392   0.8263   0.8262   0.8184   0.8052
     0.8050   0.7896   0.7871   0.7871   0.7773   0.7708   0.7708   0.7285
     0.7284   0.7145   0.7016   0.7016   0.5227   0.5226   0.4854   0.4407
     0.4101   0.4101   0.3795   0.3792   0.3544   0.3542   0.3452   0.3410
     0.1696   0.1135   0.1135   0.1020   0.0771   0.0770   0.0765   0.0755
     0.0647   0.0647   0.0641   0.0561   0.0561   0.0547   0.0509   0.0492
     0.0491   0.0354   0.0118   0.0107   0.0107   0.0040   0.0015   0.0015
     0.0015   0.0005   0.0005   0.0004   0.0004   0.0003   0.0003   0.0002
     0.0002   0.0001   0.0001   0.0000   0.0000   0.0000   0.0000   0.0000
     0.0000   0.0000   0.0000   0.0000   0.0000   0.0000   0.0000   0.0000
     0.0000   0.0000   0.0000   0.0000   0.0000   0.0000   0.0000   0.0000
     0.0000   0.0000   0.0000   0.0000   0.0000   0.0000   0.0000   0.0000
     0.0000   0.0000   0.0000   0.0000   0.0000   0.0000   0.0000   0.0000
     0.0000   0.0000   0.0000   0.0000   0.0000   0.0000   0.0000   0.0000
     0.0000   0.0000   0.0000   0.0000   0.0000   0.0000   0.0000   0.0000
     0.0000   0.0000   0.0000   0.0000   0.0000   0.0000   0.0000   0.0000
     0.0000   0.0000   0.0000   0.0000   0.0000   0.0000   0.0000   0.0000
     0.0000   0.0000   0.0000   0.0000   0.0000   0.0000   0.0000   0.0000
     0.0000   0.0000   0.0000   0.0000   0.0000   0.0000   0.0000   0.0000
     0.0000   0.0000   0.0000   0.0000   0.0000   0.0000   0.0000   0.0000
     0.0000   0.0000   0.0000   0.0000   0.0000   0.0000   0.0000   0.0000
     0.0000   0.0000   0.0000   0.0000   0.0000   0.0000   0.0000   0.0000
     0.0000   0.0000   0.0000   0.0000   0.0000   0.0000   0.0000   0.0000
     0.0000   0.0000   0.0000   0.0000   0.0000   0.0000   0.0000   0.0000
     0.0000   0.0000   0.0000   0.0000   0.0000   0.0000   0.0000   0.0000
     0.0000   0.0000   0.0000   0.0000   0.0000   0.0000   0.0000   0.0000

          k = 0.0000 0.0000-0.5700 (100616 PWs)   bands (ev):

   -69.1426 -69.1352 -69.1351 -69.0493 -69.0488 -69.0381 -69.0378 -69.0377
   -69.0374 -69.0360 -69.0359 -69.0354 -69.0171 -69.0168 -69.0166 -69.0166
   -69.0165 -69.0162 -69.0118 -69.0117 -69.0115 -69.0052 -69.0050 -69.0048
   -69.0048 -69.0048 -69.0045 -69.0045 -69.0045 -69.0042 -69.0024 -69.0021
   -69.0021 -69.0020 -69.0019 -69.0018 -68.6383 -68.6383 -68.6382 -68.6381
   -68.6378 -68.6377 -68.6372 -68.6372 -68.6372 -68.6371 -68.6370 -68.6370
   -68.6370 -68.6370 -68.6369 -68.6369 -68.6367 -68.6365 -68.6360 -68.6357
   -68.6356 -68.6340 -68.6335 -68.6334 -68.6244 -68.6244 -68.6242 -68.6242
   -68.6241 -68.6241 -68.6180 -68.6179 -68.6175 -68.6175 -68.6174 -68.6174
   -35.5046 -35.4329 -35.4328 -35.3334 -35.3330 -35.3034 -35.3026 -35.3024
   -35.2966 -35.2958 -35.2956 -35.2949 -35.2945 -35.2944 -35.2892 -35.2891
   -35.2654 -35.2607 -35.2606 -35.2601 -35.2599 -35.2445 -35.2443 -35.2415
   -35.2314 -35.2302 -35.2302 -35.2267 -35.2267 -35.2265 -35.2254 -35.2252
   -35.2251 -35.2249 -35.2231 -35.2231 -35.2220 -35.2219 -35.2197 -35.2060
   -35.2058 -35.2046 -35.2044 -35.1890 -35.1854 -35.1851 -35.1838 -35.1813
   -35.1747 -35.1741 -35.1740 -35.1723 -35.1695 -35.1695 -35.1694 -35.1694
   -35.1691 -35.1669 -35.1667 -35.1666 -35.1658 -35.1649 -35.1649 -35.1589
   -35.1563 -35.1561 -35.1553 -35.1529 -35.1528 -35.1519 -35.1506 -35.1505
   -35.1063 -35.0951 -35.0950 -35.0666 -35.0575 -35.0496 -35.0493 -35.0473
   -35.0472 -35.0410 -35.0402 -35.0398 -35.0330 -35.0328 -35.0309 -35.0297
   -35.0262 -35.0260 -35.0250 -35.0248 -35.0210 -35.0186 -35.0185 -35.0135
   -35.0126 -35.0125 -35.0114 -35.0099 -35.0099 -35.0092 -35.0088 -35.0086
   -35.0066 -35.0065 -35.0046 -35.0046 -34.8371 -34.8311 -34.8310 -34.8279
   -34.8278 -34.8277 -34.8277 -34.8276 -34.8268 -34.8264 -34.8263 -34.8259
   -34.8259 -34.8255 -34.8255 -34.8244 -34.8230 -34.8229 -34.8228 -34.8213
   -34.8212 -34.8211 -34.8202 -34.8197 -34.8138 -34.8137 -34.8127 -34.8123
   -34.8121 -34.8114 -34.8022 -34.8004 -34.8001 -34.7994 -34.7991 -34.7979
   -34.7662 -34.7662 -34.7651 -34.7650 -34.7623 -34.7623 -34.7617 -34.7617
   -34.7615 -34.7614 -34.7614 -34.7610 -34.7610 -34.7605 -34.7597 -34.7591
   -34.7590 -34.7588 -34.7587 -34.7560 -34.7558 -34.7557 -34.7547 -34.7545
   -34.7545 -34.7532 -34.7530 -34.7514 -34.7489 -34.7483 -34.7481 -34.7464
   -34.7462 -34.7458 -34.7456 -34.7415 -34.7044 -34.7005 -34.6996 -34.6967
   -34.6963 -34.6949 -34.6922 -34.6922 -34.6874 -34.6873 -34.6869 -34.6869
   -34.6852 -34.6850 -34.6842 -34.6839 -34.6835 -34.6834 -34.6830 -34.6757
   -34.6757 -34.6754 -34.6749 -34.6744 -34.6742 -34.6729 -34.6698 -34.6696
   -34.6696 -34.6695 -34.6645 -34.6643 -34.6634 -34.6631 -34.6608 -34.6607
     3.3959   3.5661   4.0021   4.4809   4.5509   4.5511   4.5630   4.5633
     4.6456   4.6501   4.6521   4.6522   4.6758   4.6759   5.1314   5.3641
     5.4047   5.5016   5.5154   5.5156   5.5279   5.5312   5.5314   5.5546
     5.5654   5.5754   5.5757   5.5933   5.6051   5.6051   5.9192   5.9254
     5.9256   5.9494   5.9631   6.3416   8.2356   9.8747   9.8751   9.9131
     9.9134   9.9198   9.9310   9.9313   9.9461   9.9874   9.9966  10.0102
    10.0104  10.4786  10.8445  10.8446  10.8547  10.8934  10.8938  10.9183
    10.9186  11.0585  11.0694  11.0742  11.0743  11.0812  11.0813  11.0871
    11.0872  11.1018  11.1019  11.1025  11.1153  11.2254  11.2255  11.2497
    11.2498  11.4513  11.5231  11.5235  11.5451  11.8544  11.8796  11.8807
    11.9390  12.1445  12.1485  12.1718  12.1718  12.1726  12.1727  12.2887
    12.2894  12.3440  12.3442  12.3520  12.3703  12.4527  12.4528  12.4610
    12.4900  12.6764  12.6787  12.6792  12.7013  12.7016  12.7046  12.7049
    12.7051  12.7154  12.7159  12.7177  12.7177  12.7229  12.7230  12.7454
    12.7541  12.7553  12.7554  12.7595  12.7595  12.8034  12.8097  12.8168
    12.8169  12.8180  12.8182  12.8638  12.8654  12.9324  12.9345  12.9347
    12.9349  12.9570  12.9572  13.1705  13.1949  13.1952  13.2413  13.2415
    13.2499  13.2500  13.6055  13.6158  13.6160  13.6190  13.6221  13.6222
    14.1517  14.4867  14.4871  14.5500  14.5506  14.6450  14.6451  14.6452
    14.6472  14.6473  14.6950  14.7255  14.7307  14.7308  14.7314  14.7315
    14.7966  14.7967  14.8002  14.8003  14.8475  14.8476  14.8691  14.9198
    14.9200  14.9334  14.9405  14.9406  14.9420  14.9450  14.9470  14.9471
    14.9636  14.9636  14.9687  14.9687  15.0075  15.0076  15.0120  15.0151
    15.0288  15.0289  15.0399  15.0400  15.0456  15.0478  15.0479  15.0485
    15.0485  15.0563  15.0660  15.0752  15.0752  15.0837  15.1752  15.2186
    15.2678  15.2863  15.2864  15.3023  15.3024  15.3081  15.3102  15.3239
    15.3382  15.3382  15.4669  15.4671  15.4830  15.4855  15.4856  15.4876
    15.4878  15.5044  15.5470  15.5824  15.6886  15.6887  15.6998  15.6999
    15.7765  15.8082  15.8083  15.8096  15.8097  15.8303  15.9174  15.9174
    15.9341  15.9798  15.9799  15.9837  15.9882  15.9882  16.0344  16.0674
    16.0674  16.0877  16.0979  16.0980  16.0997  16.0997  16.1143  16.1143
    16.2141  16.2141  16.2207  16.2207  16.2328  16.2359  16.2382  16.2996
    16.2998  16.3270  16.3910  16.4034  16.4035  16.4045  16.4045  16.4084
    16.4365  16.4365  16.4574  16.5405  16.5406  16.5577  16.5578  16.5579
    16.5584  16.6115  16.6954  16.6954  16.7040  16.7043  16.7045  16.7108
    16.7322  16.7322  16.7482  16.7957  16.7958  16.8063  16.8063  16.8187
    16.8359  16.8361  16.8366  16.8367  16.8703  16.8711  16.8851  16.8916
    16.8918  16.8983  16.8985  16.9039  16.9136  16.9221  16.9369  16.9369
    16.9397  16.9595  16.9595  16.9625  16.9626  16.9638  16.9917  16.9919
    16.9998  16.9998  17.0545  17.1072  17.1124  17.1124  17.1196  17.1274
    17.1335  17.1335  17.1393  17.1473  17.1473  17.1735  17.1735  17.1740
    17.1780  17.1853  17.1853  17.2087  17.2087  17.2525  17.2569  17.2570
    17.3705  17.4533  17.4533  17.4679  17.4679  17.4702  17.4775  17.4897
    17.5008  17.5185  17.5196  17.5196  17.5226  17.5228  17.5229  17.5588
    17.5588  17.5616  17.5617  17.5752  17.6477  17.6750  17.7593  17.7595
    17.8505  17.8506  17.8563  17.8623  17.9320  17.9321  17.9385  17.9389
    17.9411  17.9412  17.9460  17.9461  17.9586  17.9587  17.9743  17.9743
    18.0123  18.0123  18.0124  18.0125  18.0211  18.0412  18.0449  18.0450
    18.0506  18.0507  18.0613  18.0806  18.0808  18.0912  18.0912  18.0967
    18.0967  18.1004  18.1029  18.1051  18.1066  18.1067  18.1084  18.1132
    18.1134  18.1165  18.1195  18.1196  18.1259  18.1320  18.1346  18.1473
    18.1473  18.1538  18.2166  18.2166  18.2284  18.2622  18.2751  18.2751
    18.4217  18.4235  18.4482  18.4483  18.4546  18.4547  18.4906  18.5030
    18.5080  18.5091  18.5093  18.5104  18.5105  18.5118  18.5176  18.5177
    18.5238  18.5239  18.7338  18.7339  18.9106  19.0355  19.1090  19.1359
    19.1407  19.1408  19.1430  19.1431  19.1856  19.1971  19.2085  19.2086
    19.2160  19.2540  19.2664  19.2759  19.2760  19.2780  19.2781  19.3253
    19.3253  19.3255  19.3255  19.3287  19.5291  19.5334  19.5335  19.5559
    19.7359  19.7538  19.7540  19.7630  19.8080  19.8081  19.8131  19.8423
    19.8424  19.8863  19.8865  19.9007  19.9208  20.1209  20.1524  20.1526
    20.2364  20.2365  20.2453  20.2480  20.2538  20.2713  20.3017  20.3018
    20.3210  20.3308  20.3345  20.3346  20.3355  20.3356  20.4151  20.4442
    20.4443  20.5331  20.5332  20.5525  21.1353  21.1357  21.1492  21.1493
    21.1669  21.1670  21.3564  21.4656  21.4657  22.0856  22.1968  22.1976

     occupation numbers 
     1.0000   1.0000   1.0000   1.0000   1.0000   1.0000   1.0000   1.0000
     1.0000   1.0000   1.0000   1.0000   1.0000   1.0000   1.0000   1.0000
     1.0000   1.0000   1.0000   1.0000   1.0000   1.0000   1.0000   1.0000
     1.0000   1.0000   1.0000   1.0000   1.0000   1.0000   1.0000   1.0000
     1.0000   1.0000   1.0000   1.0000   1.0000   1.0000   1.0000   1.0000
     1.0000   1.0000   1.0000   1.0000   1.0000   1.0000   1.0000   1.0000
     1.0000   1.0000   1.0000   1.0000   1.0000   1.0000   1.0000   1.0000
     1.0000   1.0000   1.0000   1.0000   1.0000   1.0000   1.0000   1.0000
     1.0000   1.0000   1.0000   1.0000   1.0000   1.0000   1.0000   1.0000
     1.0000   1.0000   1.0000   1.0000   1.0000   1.0000   1.0000   1.0000
     1.0000   1.0000   1.0000   1.0000   1.0000   1.0000   1.0000   1.0000
     1.0000   1.0000   1.0000   1.0000   1.0000   1.0000   1.0000   1.0000
     1.0000   1.0000   1.0000   1.0000   1.0000   1.0000   1.0000   1.0000
     1.0000   1.0000   1.0000   1.0000   1.0000   1.0000   1.0000   1.0000
     1.0000   1.0000   1.0000   1.0000   1.0000   1.0000   1.0000   1.0000
     1.0000   1.0000   1.0000   1.0000   1.0000   1.0000   1.0000   1.0000
     1.0000   1.0000   1.0000   1.0000   1.0000   1.0000   1.0000   1.0000
     1.0000   1.0000   1.0000   1.0000   1.0000   1.0000   1.0000   1.0000
     1.0000   1.0000   1.0000   1.0000   1.0000   1.0000   1.0000   1.0000
     1.0000   1.0000   1.0000   1.0000   1.0000   1.0000   1.0000   1.0000
     1.0000   1.0000   1.0000   1.0000   1.0000   1.0000   1.0000   1.0000
     1.0000   1.0000   1.0000   1.0000   1.0000   1.0000   1.0000   1.0000
     1.0000   1.0000   1.0000   1.0000   1.0000   1.0000   1.0000   1.0000
     1.0000   1.0000   1.0000   1.0000   1.0000   1.0000   1.0000   1.0000
     1.0000   1.0000   1.0000   1.0000   1.0000   1.0000   1.0000   1.0000
     1.0000   1.0000   1.0000   1.0000   1.0000   1.0000   1.0000   1.0000
     1.0000   1.0000   1.0000   1.0000   1.0000   1.0000   1.0000   1.0000
     1.0000   1.0000   1.0000   1.0000   1.0000   1.0000   1.0000   1.0000
     1.0000   1.0000   1.0000   1.0000   1.0000   1.0000   1.0000   1.0000
     1.0000   1.0000   1.0000   1.0000   1.0000   1.0000   1.0000   1.0000
     1.0000   1.0000   1.0000   1.0000   1.0000   1.0000   1.0000   1.0000
     1.0000   1.0000   1.0000   1.0000   1.0000   1.0000   1.0000   1.0000
     1.0000   1.0000   1.0000   1.0000   1.0000   1.0000   1.0000   1.0000
     1.0000   1.0000   1.0000   1.0000   1.0000   1.0000   1.0000   1.0000
     1.0000   1.0000   1.0000   1.0000   1.0000   1.0000   1.0000   1.0000
     1.0000   1.0000   1.0000   1.0000   1.0000   1.0000   1.0000   1.0000
     1.0000   1.0000   1.0000   1.0000   1.0000   1.0000   1.0000   1.0000
     1.0000   1.0000   1.0000   1.0000   1.0000   1.0000   1.0000   1.0000
     1.0000   1.0000   1.0000   1.0000   1.0000   1.0000   1.0000   1.0000
     1.0000   1.0000   1.0000   1.0000   1.0000   1.0000   1.0000   1.0000
     1.0000   1.0000   1.0000   1.0000   1.0000   1.0000   1.0000   1.0000
     1.0000   1.0000   1.0000   1.0000   1.0000   1.0000   1.0000   1.0000
     1.0000   1.0000   1.0000   1.0000   1.0000   1.0000   1.0000   1.0000
     1.0000   1.0000   1.0000   1.0000   1.0000   1.0000   1.0000   1.0000
     1.0000   1.0000   1.0000   1.0000   1.0000   1.0000   1.0000   1.0000
     1.0000   1.0000   1.0000   1.0000   1.0000   1.0000   1.0000   1.0000
     1.0000   1.0000   1.0000   1.0000   1.0000   1.0000   1.0000   1.0000
     1.0000   1.0000   1.0000   1.0000   1.0000   1.0000   1.0000   1.0000
     1.0000   1.0000   1.0000   1.0000   1.0000   1.0000   1.0000   1.0000
     1.0000   1.0000   1.0000   1.0000   1.0000   1.0000   1.0000   1.0000
     1.0000   1.0000   1.0000   1.0000   1.0000   1.0000   1.0000   1.0000
     1.0000   1.0000   1.0000   1.0000   1.0000   1.0000   1.0000   1.0000
     1.0000   1.0000   1.0000   1.0000   1.0000   1.0000   1.0000   1.0000
     1.0000   1.0000   1.0000   1.0000   1.0000   1.0000   1.0000   1.0000
     1.0000   1.0000   1.0000   1.0000   1.0000   1.0000   1.0000   1.0000
     1.0000   1.0000   1.0000   1.0000   1.0000   1.0000   1.0000   1.0000
     1.0000   1.0000   1.0000   1.0000   1.0000   1.0000   1.0000   1.0000
     1.0000   1.0000   1.0000   1.0000   1.0000   1.0000   1.0000   1.0000
     1.0000   1.0000   1.0000   1.0000   1.0000   1.0000   1.0000   1.0000
     1.0000   1.0000   1.0000   1.0000   1.0000   1.0000   1.0000   1.0000
     1.0000   1.0000   1.0000   1.0000   1.0000   1.0000   1.0000   1.0000
     1.0000   1.0000   1.0000   1.0000   1.0000   1.0000   1.0000   1.0000
     1.0000   1.0000   1.0000   1.0000   1.0000   1.0000   1.0000   1.0000
     1.0000   1.0000   1.0000   1.0000   1.0000   1.0000   1.0000   1.0000
     1.0000   1.0000   1.0000   1.0000   1.0000   1.0000   1.0000   1.0000
     1.0000   1.0000   1.0000   1.0000   1.0000   1.0000   1.0000   1.0000
     1.0000   1.0000   1.0000   1.0000   1.0000   1.0000   1.0000   1.0000
     1.0000   1.0000   1.0000   1.0000   1.0000   1.0000   1.0000   1.0000
     1.0000   1.0000   1.0000   1.0000   1.0000   1.0000   1.0000   1.0000
     1.0000   1.0000   1.0000   0.9997   0.9997   0.9996   0.9996   0.9996
     0.9996   0.9991   0.9962   0.9962   0.9957   0.9957   0.9957   0.9952
     0.9935   0.9935   0.9918   0.9843   0.9843   0.9820   0.9820   0.9789
     0.9740   0.9739   0.9738   0.9737   0.9611   0.9608   0.9542   0.9509
     0.9508   0.9472   0.9471   0.9440   0.9381   0.9325   0.9219   0.9219
     0.9197   0.9033   0.9032   0.9005   0.9005   0.8993   0.8714   0.8712
     0.8623   0.8623   0.7901   0.7028   0.6935   0.6934   0.6802   0.6657
     0.6540   0.6539   0.6427   0.6272   0.6271   0.5746   0.5745   0.5737
     0.5655   0.5505   0.5504   0.5021   0.5020   0.4120   0.4032   0.4029
     0.2017   0.1028   0.1028   0.0898   0.0898   0.0879   0.0820   0.0728
     0.0652   0.0543   0.0537   0.0536   0.0520   0.0519   0.0518   0.0348
     0.0348   0.0337   0.0337   0.0287   0.0114   0.0078   0.0021   0.0021
     0.0004   0.0004   0.0004   0.0003   0.0001   0.0001   0.0001   0.0001
     0.0001   0.0001   0.0001   0.0001   0.0000   0.0000   0.0000   0.0000
     0.0000   0.0000   0.0000   0.0000   0.0000   0.0000   0.0000   0.0000
     0.0000   0.0000   0.0000   0.0000   0.0000   0.0000   0.0000   0.0000
     0.0000   0.0000   0.0000   0.0000   0.0000   0.0000   0.0000   0.0000
     0.0000   0.0000   0.0000   0.0000   0.0000   0.0000   0.0000   0.0000
     0.0000   0.0000   0.0000   0.0000   0.0000   0.0000   0.0000   0.0000
     0.0000   0.0000   0.0000   0.0000   0.0000   0.0000   0.0000   0.0000
     0.0000   0.0000   0.0000   0.0000   0.0000   0.0000   0.0000   0.0000
     0.0000   0.0000   0.0000   0.0000   0.0000   0.0000   0.0000   0.0000
     0.0000   0.0000   0.0000   0.0000   0.0000   0.0000   0.0000   0.0000
     0.0000   0.0000   0.0000   0.0000   0.0000   0.0000   0.0000   0.0000
     0.0000   0.0000   0.0000   0.0000   0.0000   0.0000   0.0000   0.0000
     0.0000   0.0000   0.0000   0.0000   0.0000   0.0000   0.0000   0.0000
     0.0000   0.0000   0.0000   0.0000   0.0000   0.0000   0.0000   0.0000
     0.0000   0.0000   0.0000   0.0000   0.0000   0.0000   0.0000   0.0000
     0.0000   0.0000   0.0000   0.0000   0.0000   0.0000   0.0000   0.0000
     0.0000   0.0000   0.0000   0.0000   0.0000   0.0000   0.0000   0.0000
     0.0000   0.0000   0.0000   0.0000   0.0000   0.0000   0.0000   0.0000

          k = 0.0000 0.2887 0.0000 (100583 PWs)   bands (ev):

   -69.1426 -69.1352 -69.1351 -69.0493 -69.0488 -69.0381 -69.0378 -69.0377
   -69.0374 -69.0360 -69.0359 -69.0354 -69.0171 -69.0169 -69.0166 -69.0166
   -69.0165 -69.0162 -69.0118 -69.0117 -69.0115 -69.0052 -69.0050 -69.0049
   -69.0048 -69.0048 -69.0045 -69.0045 -69.0045 -69.0042 -69.0024 -69.0021
   -69.0021 -69.0020 -69.0019 -69.0018 -68.6383 -68.6383 -68.6382 -68.6382
   -68.6378 -68.6377 -68.6372 -68.6372 -68.6372 -68.6371 -68.6370 -68.6370
   -68.6370 -68.6370 -68.6369 -68.6369 -68.6367 -68.6365 -68.6359 -68.6357
   -68.6356 -68.6340 -68.6335 -68.6334 -68.6244 -68.6244 -68.6242 -68.6242
   -68.6241 -68.6241 -68.6180 -68.6179 -68.6175 -68.6175 -68.6174 -68.6174
   -35.5046 -35.4329 -35.4328 -35.3335 -35.3329 -35.3033 -35.3027 -35.3023
   -35.2964 -35.2953 -35.2953 -35.2952 -35.2950 -35.2947 -35.2892 -35.2891
   -35.2654 -35.2605 -35.2603 -35.2602 -35.2600 -35.2443 -35.2438 -35.2418
   -35.2311 -35.2296 -35.2294 -35.2284 -35.2275 -35.2270 -35.2250 -35.2246
   -35.2244 -35.2243 -35.2234 -35.2229 -35.2229 -35.2228 -35.2211 -35.2055
   -35.2052 -35.2046 -35.2044 -35.1882 -35.1855 -35.1850 -35.1838 -35.1813
   -35.1746 -35.1738 -35.1736 -35.1724 -35.1707 -35.1699 -35.1690 -35.1687
   -35.1684 -35.1667 -35.1664 -35.1663 -35.1662 -35.1660 -35.1654 -35.1587
   -35.1567 -35.1563 -35.1542 -35.1527 -35.1524 -35.1522 -35.1511 -35.1508
   -35.1060 -35.0950 -35.0949 -35.0660 -35.0585 -35.0494 -35.0491 -35.0448
   -35.0444 -35.0424 -35.0404 -35.0389 -35.0370 -35.0362 -35.0306 -35.0295
   -35.0270 -35.0259 -35.0219 -35.0211 -35.0197 -35.0181 -35.0173 -35.0170
   -35.0163 -35.0156 -35.0140 -35.0132 -35.0111 -35.0092 -35.0092 -35.0078
   -35.0066 -35.0065 -35.0000 -34.9993 -34.8305 -34.8303 -34.8295 -34.8294
   -34.8294 -34.8294 -34.8278 -34.8276 -34.8272 -34.8269 -34.8269 -34.8261
   -34.8261 -34.8259 -34.8258 -34.8253 -34.8252 -34.8239 -34.8228 -34.8222
   -34.8216 -34.8211 -34.8184 -34.8178 -34.8155 -34.8149 -34.8148 -34.8108
   -34.8100 -34.8082 -34.8040 -34.8009 -34.8006 -34.7987 -34.7984 -34.7956
   -34.7695 -34.7691 -34.7665 -34.7651 -34.7651 -34.7639 -34.7636 -34.7628
   -34.7624 -34.7616 -34.7611 -34.7607 -34.7594 -34.7592 -34.7580 -34.7579
   -34.7573 -34.7571 -34.7568 -34.7563 -34.7563 -34.7560 -34.7534 -34.7532
   -34.7520 -34.7515 -34.7511 -34.7507 -34.7492 -34.7491 -34.7477 -34.7474
   -34.7467 -34.7465 -34.7461 -34.7438 -34.7029 -34.7008 -34.6986 -34.6970
   -34.6966 -34.6965 -34.6933 -34.6922 -34.6882 -34.6880 -34.6874 -34.6870
   -34.6854 -34.6847 -34.6838 -34.6834 -34.6833 -34.6828 -34.6815 -34.6760
   -34.6757 -34.6750 -34.6744 -34.6742 -34.6738 -34.6728 -34.6701 -34.6700
   -34.6696 -34.6694 -34.6645 -34.6643 -34.6637 -34.6635 -34.6608 -34.6608
     3.2572   3.7389   4.0308   4.1916   4.3535   4.3972   4.5408   4.6578
     4.7585   4.8273   4.8535   4.9672   4.9918   5.0482   5.0534   5.2101
     5.2704   5.3175   5.3218   5.3634   5.3745   5.3799   5.4178   5.4531
     5.4627   5.6822   5.6871   5.7572   5.7597   5.7637   5.7680   5.7780
     5.8576   5.8718   6.1394   6.1565   8.4264   9.7314   9.8074   9.8155
    10.1750  10.2158  10.2262  10.3007  10.3234  10.3265  10.4366  10.5554
    10.6252  10.6296  10.6304  10.6415  10.6566  10.6583  10.6638  10.6724
    10.7109  10.7153  10.7827  10.8586  10.8663  10.8753  10.9102  10.9363
    11.0008  11.0447  11.1801  11.1899  11.2914  11.3169  11.3423  11.3565
    11.3986  11.4099  11.4671  11.4845  11.4901  11.5318  11.5614  11.5744
    11.5762  11.9584  11.9590  12.0109  12.1047  12.1215  12.1319  12.1402
    12.1406  12.1410  12.1441  12.2496  12.2502  12.2593  12.2962  12.3161
    12.3182  12.3467  12.3507  12.3537  12.5483  12.5527  12.5551  12.6519
    12.6660  12.6776  12.6809  12.6862  12.6919  12.7125  12.7463  12.7645
    12.8577  12.8883  12.8984  12.9303  12.9481  12.9486  12.9570  12.9623
    12.9637  12.9707  12.9736  12.9964  13.0015  13.1980  13.2166  13.2348
    13.2367  13.2956  13.2965  13.3066  13.3226  13.3702  13.3961  13.4622
    13.4641  13.4707  13.4813  13.4964  13.6528  13.8235  13.8269  13.9761
    14.1462  14.4853  14.5104  14.5403  14.5432  14.5466  14.5721  14.6024
    14.6150  14.6575  14.6675  14.7179  14.7304  14.7504  14.7553  14.7606
    14.7646  14.7648  14.7667  14.7690  14.7713  14.7864  14.7874  14.8342
    14.8392  14.8419  14.8579  14.8608  14.8725  14.8870  14.8899  14.9028
    14.9106  14.9227  14.9384  14.9631  14.9707  14.9811  14.9819  14.9960
    15.0020  15.0062  15.0119  15.0131  15.0871  15.1058  15.1227  15.1266
    15.1297  15.1369  15.1494  15.1527  15.1695  15.2516  15.2564  15.2810
    15.2812  15.2899  15.3025  15.3384  15.3431  15.3577  15.4040  15.4223
    15.4398  15.4558  15.4692  15.4700  15.4704  15.4746  15.4968  15.5015
    15.5036  15.5138  15.5146  15.5217  15.5271  15.6222  15.6295  15.6314
    15.6938  15.7658  15.8443  15.8697  15.9076  15.9087  15.9195  15.9303
    15.9456  15.9825  15.9912  16.0011  16.0021  16.0172  16.0237  16.0294
    16.0373  16.0401  16.0529  16.0623  16.0842  16.1021  16.1054  16.1189
    16.1219  16.1263  16.1302  16.1336  16.1479  16.1760  16.1851  16.2033
    16.2190  16.2284  16.3318  16.3364  16.3375  16.3455  16.3551  16.3703
    16.5003  16.5075  16.5101  16.5120  16.5205  16.5281  16.5375  16.5674
    16.5725  16.5904  16.6374  16.6545  16.6740  16.6764  16.6946  16.7225
    16.7262  16.7323  16.7437  16.7484  16.7579  16.7684  16.7703  16.7783
    16.8002  16.8033  16.8054  16.8165  16.8407  16.8519  16.8569  16.8704
    16.8934  16.9457  16.9515  16.9686  16.9868  17.0085  17.0139  17.0190
    17.0291  17.0419  17.0441  17.0478  17.0516  17.0529  17.0589  17.0649
    17.0733  17.0779  17.0780  17.0827  17.0919  17.1089  17.1162  17.1165
    17.1208  17.1405  17.1615  17.1794  17.1915  17.2115  17.2349  17.2667
    17.2682  17.2698  17.2829  17.2899  17.2917  17.3004  17.3301  17.3544
    17.3791  17.3930  17.4089  17.4179  17.4281  17.4320  17.4415  17.4491
    17.4590  17.4705  17.4848  17.4889  17.4941  17.5057  17.5173  17.5175
    17.5317  17.5678  17.5747  17.7047  17.7104  17.7116  17.7677  17.8177
    17.8278  17.8369  17.8453  17.8478  17.8556  17.8581  17.8679  17.8773
    17.8902  17.8956  17.9086  17.9472  17.9574  17.9729  18.0005  18.0029
    18.0061  18.0070  18.0081  18.0116  18.0155  18.0272  18.0334  18.0454
    18.0475  18.0571  18.0584  18.0626  18.0687  18.0712  18.0741  18.0854
    18.0881  18.0948  18.1013  18.1072  18.1327  18.1364  18.1410  18.1449
    18.1470  18.1491  18.1600  18.1613  18.1694  18.1756  18.1806  18.1831
    18.2152  18.2251  18.2270  18.2342  18.2472  18.2544  18.2587  18.2705
    18.2781  18.2815  18.2820  18.3163  18.3234  18.3265  18.3291  18.3330
    18.3656  18.3673  18.3704  18.3761  18.4040  18.4831  18.4836  18.4913
    18.5426  18.5467  18.7650  18.7828  18.7990  18.9474  18.9669  18.9698
    19.0026  19.0963  19.2543  19.2635  19.3108  19.3237  19.3247  19.3285
    19.3382  19.3554  19.3675  19.3748  19.3966  19.3986  19.4197  19.4235
    19.4777  19.4850  19.4936  19.5148  19.5241  19.5347  19.5410  19.5422
    19.5652  19.5898  19.8135  19.8447  19.8616  19.8698  19.8749  19.8979
    19.9092  19.9138  19.9627  19.9822  19.9969  20.0573  20.0665  20.0706
    20.0961  20.1696  20.1885  20.2003  20.2044  20.2437  20.3181  20.3468
    20.3674  20.4065  20.4215  20.4987  20.5106  20.5750  20.5860  20.5916
    20.5954  20.8090  20.8547  20.9486  21.0597  21.1169  21.1927  21.2613
    21.2739  21.6661  21.6920  21.7008  21.7092  21.7656  21.7814  21.8240

     occupation numbers 
     1.0000   1.0000   1.0000   1.0000   1.0000   1.0000   1.0000   1.0000
     1.0000   1.0000   1.0000   1.0000   1.0000   1.0000   1.0000   1.0000
     1.0000   1.0000   1.0000   1.0000   1.0000   1.0000   1.0000   1.0000
     1.0000   1.0000   1.0000   1.0000   1.0000   1.0000   1.0000   1.0000
     1.0000   1.0000   1.0000   1.0000   1.0000   1.0000   1.0000   1.0000
     1.0000   1.0000   1.0000   1.0000   1.0000   1.0000   1.0000   1.0000
     1.0000   1.0000   1.0000   1.0000   1.0000   1.0000   1.0000   1.0000
     1.0000   1.0000   1.0000   1.0000   1.0000   1.0000   1.0000   1.0000
     1.0000   1.0000   1.0000   1.0000   1.0000   1.0000   1.0000   1.0000
     1.0000   1.0000   1.0000   1.0000   1.0000   1.0000   1.0000   1.0000
     1.0000   1.0000   1.0000   1.0000   1.0000   1.0000   1.0000   1.0000
     1.0000   1.0000   1.0000   1.0000   1.0000   1.0000   1.0000   1.0000
     1.0000   1.0000   1.0000   1.0000   1.0000   1.0000   1.0000   1.0000
     1.0000   1.0000   1.0000   1.0000   1.0000   1.0000   1.0000   1.0000
     1.0000   1.0000   1.0000   1.0000   1.0000   1.0000   1.0000   1.0000
     1.0000   1.0000   1.0000   1.0000   1.0000   1.0000   1.0000   1.0000
     1.0000   1.0000   1.0000   1.0000   1.0000   1.0000   1.0000   1.0000
     1.0000   1.0000   1.0000   1.0000   1.0000   1.0000   1.0000   1.0000
     1.0000   1.0000   1.0000   1.0000   1.0000   1.0000   1.0000   1.0000
     1.0000   1.0000   1.0000   1.0000   1.0000   1.0000   1.0000   1.0000
     1.0000   1.0000   1.0000   1.0000   1.0000   1.0000   1.0000   1.0000
     1.0000   1.0000   1.0000   1.0000   1.0000   1.0000   1.0000   1.0000
     1.0000   1.0000   1.0000   1.0000   1.0000   1.0000   1.0000   1.0000
     1.0000   1.0000   1.0000   1.0000   1.0000   1.0000   1.0000   1.0000
     1.0000   1.0000   1.0000   1.0000   1.0000   1.0000   1.0000   1.0000
     1.0000   1.0000   1.0000   1.0000   1.0000   1.0000   1.0000   1.0000
     1.0000   1.0000   1.0000   1.0000   1.0000   1.0000   1.0000   1.0000
     1.0000   1.0000   1.0000   1.0000   1.0000   1.0000   1.0000   1.0000
     1.0000   1.0000   1.0000   1.0000   1.0000   1.0000   1.0000   1.0000
     1.0000   1.0000   1.0000   1.0000   1.0000   1.0000   1.0000   1.0000
     1.0000   1.0000   1.0000   1.0000   1.0000   1.0000   1.0000   1.0000
     1.0000   1.0000   1.0000   1.0000   1.0000   1.0000   1.0000   1.0000
     1.0000   1.0000   1.0000   1.0000   1.0000   1.0000   1.0000   1.0000
     1.0000   1.0000   1.0000   1.0000   1.0000   1.0000   1.0000   1.0000
     1.0000   1.0000   1.0000   1.0000   1.0000   1.0000   1.0000   1.0000
     1.0000   1.0000   1.0000   1.0000   1.0000   1.0000   1.0000   1.0000
     1.0000   1.0000   1.0000   1.0000   1.0000   1.0000   1.0000   1.0000
     1.0000   1.0000   1.0000   1.0000   1.0000   1.0000   1.0000   1.0000
     1.0000   1.0000   1.0000   1.0000   1.0000   1.0000   1.0000   1.0000
     1.0000   1.0000   1.0000   1.0000   1.0000   1.0000   1.0000   1.0000
     1.0000   1.0000   1.0000   1.0000   1.0000   1.0000   1.0000   1.0000
     1.0000   1.0000   1.0000   1.0000   1.0000   1.0000   1.0000   1.0000
     1.0000   1.0000   1.0000   1.0000   1.0000   1.0000   1.0000   1.0000
     1.0000   1.0000   1.0000   1.0000   1.0000   1.0000   1.0000   1.0000
     1.0000   1.0000   1.0000   1.0000   1.0000   1.0000   1.0000   1.0000
     1.0000   1.0000   1.0000   1.0000   1.0000   1.0000   1.0000   1.0000
     1.0000   1.0000   1.0000   1.0000   1.0000   1.0000   1.0000   1.0000
     1.0000   1.0000   1.0000   1.0000   1.0000   1.0000   1.0000   1.0000
     1.0000   1.0000   1.0000   1.0000   1.0000   1.0000   1.0000   1.0000
     1.0000   1.0000   1.0000   1.0000   1.0000   1.0000   1.0000   1.0000
     1.0000   1.0000   1.0000   1.0000   1.0000   1.0000   1.0000   1.0000
     1.0000   1.0000   1.0000   1.0000   1.0000   1.0000   1.0000   1.0000
     1.0000   1.0000   1.0000   1.0000   1.0000   1.0000   1.0000   1.0000
     1.0000   1.0000   1.0000   1.0000   1.0000   1.0000   1.0000   1.0000
     1.0000   1.0000   1.0000   1.0000   1.0000   1.0000   1.0000   1.0000
     1.0000   1.0000   1.0000   1.0000   1.0000   1.0000   1.0000   1.0000
     1.0000   1.0000   1.0000   1.0000   1.0000   1.0000   1.0000   1.0000
     1.0000   1.0000   1.0000   1.0000   1.0000   1.0000   1.0000   1.0000
     1.0000   1.0000   1.0000   1.0000   1.0000   1.0000   1.0000   1.0000
     1.0000   1.0000   1.0000   1.0000   1.0000   1.0000   1.0000   1.0000
     1.0000   1.0000   1.0000   1.0000   1.0000   1.0000   1.0000   1.0000
     1.0000   1.0000   1.0000   1.0000   1.0000   1.0000   1.0000   1.0000
     1.0000   1.0000   1.0000   1.0000   1.0000   1.0000   1.0000   1.0000
     1.0000   1.0000   1.0000   1.0000   1.0000   1.0000   1.0000   1.0000
     1.0000   1.0000   1.0000   1.0000   1.0000   1.0000   1.0000   1.0000
     1.0000   1.0000   1.0000   1.0000   1.0000   1.0000   1.0000   1.0000
     1.0000   1.0000   1.0000   1.0000   1.0000   1.0000   1.0000   1.0000
     1.0000   1.0000   1.0000   1.0000   1.0000   1.0000   1.0000   1.0000
     1.0000   1.0000   1.0000   1.0000   1.0000   1.0000   1.0000   1.0000
     0.9999   0.9999   0.9999   0.9999   0.9998   0.9998   0.9998   0.9996
     0.9995   0.9994   0.9985   0.9980   0.9973   0.9972   0.9963   0.9943
     0.9940   0.9934   0.9923   0.9917   0.9906   0.9891   0.9888   0.9875
     0.9833   0.9827   0.9822   0.9795   0.9724   0.9685   0.9667   0.9611
     0.9499   0.9149   0.9102   0.8949   0.8766   0.8522   0.8455   0.8392
     0.8261   0.8084   0.8053   0.8000   0.7944   0.7925   0.7834   0.7741
     0.7609   0.7534   0.7532   0.7453   0.7297   0.6998   0.6864   0.6860
     0.6780   0.6404   0.5988   0.5625   0.5377   0.4964   0.4479   0.3836
     0.3805   0.3774   0.3518   0.3385   0.3351   0.3188   0.2658   0.2260
     0.1893   0.1704   0.1503   0.1396   0.1282   0.1240   0.1142   0.1067
     0.0975   0.0877   0.0764   0.0734   0.0697   0.0620   0.0550   0.0549
     0.0471   0.0314   0.0289   0.0050   0.0046   0.0045   0.0019   0.0008
     0.0007   0.0006   0.0005   0.0005   0.0004   0.0004   0.0003   0.0003
     0.0002   0.0002   0.0001   0.0001   0.0001   0.0000   0.0000   0.0000
     0.0000   0.0000   0.0000   0.0000   0.0000   0.0000   0.0000   0.0000
     0.0000   0.0000   0.0000   0.0000   0.0000   0.0000   0.0000   0.0000
     0.0000   0.0000   0.0000   0.0000   0.0000   0.0000   0.0000   0.0000
     0.0000   0.0000   0.0000   0.0000   0.0000   0.0000   0.0000   0.0000
     0.0000   0.0000   0.0000   0.0000   0.0000   0.0000   0.0000   0.0000
     0.0000   0.0000   0.0000   0.0000   0.0000   0.0000   0.0000   0.0000
     0.0000   0.0000   0.0000   0.0000   0.0000   0.0000   0.0000   0.0000
     0.0000   0.0000   0.0000   0.0000   0.0000   0.0000   0.0000   0.0000
     0.0000   0.0000   0.0000   0.0000   0.0000   0.0000   0.0000   0.0000
     0.0000   0.0000   0.0000   0.0000   0.0000   0.0000   0.0000   0.0000
     0.0000   0.0000   0.0000   0.0000   0.0000   0.0000   0.0000   0.0000
     0.0000   0.0000   0.0000   0.0000   0.0000   0.0000   0.0000   0.0000
     0.0000   0.0000   0.0000   0.0000   0.0000   0.0000   0.0000   0.0000
     0.0000   0.0000   0.0000   0.0000   0.0000   0.0000   0.0000   0.0000
     0.0000   0.0000   0.0000   0.0000   0.0000   0.0000   0.0000   0.0000
     0.0000   0.0000   0.0000   0.0000   0.0000   0.0000   0.0000   0.0000
     0.0000   0.0000   0.0000   0.0000   0.0000   0.0000   0.0000   0.0000

          k = 0.0000 0.2887 0.2850 (100631 PWs)   bands (ev):

   -69.1426 -69.1352 -69.1351 -69.0493 -69.0488 -69.0381 -69.0378 -69.0377
   -69.0374 -69.0360 -69.0359 -69.0354 -69.0171 -69.0169 -69.0166 -69.0166
   -69.0165 -69.0162 -69.0118 -69.0117 -69.0115 -69.0052 -69.0050 -69.0049
   -69.0048 -69.0048 -69.0045 -69.0045 -69.0045 -69.0042 -69.0024 -69.0021
   -69.0021 -69.0020 -69.0019 -69.0018 -68.6383 -68.6383 -68.6382 -68.6381
   -68.6378 -68.6377 -68.6372 -68.6372 -68.6372 -68.6371 -68.6370 -68.6370
   -68.6370 -68.6370 -68.6369 -68.6369 -68.6367 -68.6365 -68.6359 -68.6357
   -68.6356 -68.6340 -68.6335 -68.6334 -68.6244 -68.6244 -68.6242 -68.6242
   -68.6241 -68.6241 -68.6180 -68.6179 -68.6175 -68.6175 -68.6174 -68.6174
   -35.5046 -35.4329 -35.4328 -35.3334 -35.3330 -35.3033 -35.3027 -35.3023
   -35.2963 -35.2956 -35.2954 -35.2951 -35.2949 -35.2945 -35.2892 -35.2891
   -35.2654 -35.2606 -35.2604 -35.2602 -35.2600 -35.2443 -35.2439 -35.2417
   -35.2312 -35.2299 -35.2296 -35.2277 -35.2270 -35.2267 -35.2251 -35.2248
   -35.2247 -35.2245 -35.2233 -35.2231 -35.2230 -35.2228 -35.2209 -35.2056
   -35.2051 -35.2046 -35.2044 -35.1882 -35.1855 -35.1850 -35.1838 -35.1813
   -35.1744 -35.1737 -35.1735 -35.1724 -35.1703 -35.1697 -35.1691 -35.1689
   -35.1687 -35.1668 -35.1665 -35.1663 -35.1663 -35.1661 -35.1652 -35.1586
   -35.1567 -35.1562 -35.1546 -35.1530 -35.1526 -35.1519 -35.1509 -35.1506
   -35.1062 -35.0951 -35.0950 -35.0663 -35.0580 -35.0498 -35.0495 -35.0459
   -35.0453 -35.0419 -35.0403 -35.0394 -35.0348 -35.0345 -35.0309 -35.0299
   -35.0270 -35.0260 -35.0237 -35.0228 -35.0201 -35.0191 -35.0168 -35.0155
   -35.0142 -35.0138 -35.0113 -35.0112 -35.0111 -35.0094 -35.0091 -35.0086
   -35.0075 -35.0074 -35.0017 -35.0010 -34.8346 -34.8313 -34.8308 -34.8279
   -34.8278 -34.8277 -34.8275 -34.8272 -34.8271 -34.8270 -34.8267 -34.8261
   -34.8259 -34.8256 -34.8254 -34.8251 -34.8239 -34.8235 -34.8231 -34.8224
   -34.8217 -34.8212 -34.8188 -34.8185 -34.8148 -34.8144 -34.8142 -34.8115
   -34.8108 -34.8094 -34.8032 -34.8007 -34.8004 -34.7991 -34.7988 -34.7966
   -34.7680 -34.7676 -34.7657 -34.7646 -34.7646 -34.7639 -34.7636 -34.7630
   -34.7618 -34.7608 -34.7608 -34.7600 -34.7592 -34.7590 -34.7588 -34.7586
   -34.7583 -34.7582 -34.7577 -34.7565 -34.7561 -34.7557 -34.7543 -34.7539
   -34.7531 -34.7529 -34.7524 -34.7508 -34.7483 -34.7481 -34.7479 -34.7474
   -34.7471 -34.7461 -34.7458 -34.7423 -34.7031 -34.7004 -34.6988 -34.6970
   -34.6967 -34.6964 -34.6933 -34.6922 -34.6882 -34.6880 -34.6873 -34.6870
   -34.6853 -34.6846 -34.6840 -34.6836 -34.6832 -34.6827 -34.6815 -34.6760
   -34.6757 -34.6750 -34.6744 -34.6742 -34.6739 -34.6728 -34.6702 -34.6699
   -34.6697 -34.6694 -34.6646 -34.6643 -34.6637 -34.6634 -34.6608 -34.6608
     3.3212   3.7517   3.9831   4.1152   4.2537   4.4103   4.5692   4.6809
     4.7100   4.7154   4.8379   4.8816   5.0355   5.1042   5.1801   5.2253
     5.2722   5.3115   5.3327   5.3773   5.3998   5.4541   5.5368   5.5639
     5.5715   5.5942   5.5958   5.6178   5.6391   5.7073   5.7913   5.8944
     5.8967   5.9843   6.0085   6.2584   8.3249   9.8020   9.8711   9.8785
     9.9551  10.0293  10.1472  10.1904  10.2201  10.2312  10.2443  10.2667
    10.2860  10.3939  10.4991  10.5069  10.6642  10.7378  10.7461  10.7483
    10.7936  10.8142  10.8431  10.8508  10.8707  10.9213  11.0232  11.0625
    11.0941  11.1951  11.2074  11.2195  11.3418  11.3983  11.4269  11.4606
    11.5111  11.5260  11.5626  11.5935  11.6205  11.6654  11.7323  11.7968
    11.8346  11.8740  11.8804  11.9408  12.0740  12.2189  12.2259  12.2495
    12.2619  12.2687  12.2802  12.3132  12.3196  12.3512  12.3726  12.3767
    12.4022  12.4153  12.4330  12.4459  12.4693  12.4776  12.5250  12.5522
    12.5813  12.5886  12.6358  12.6495  12.6717  12.6946  12.7285  12.7331
    12.8295  12.8379  12.8451  12.8577  12.8634  12.9000  12.9104  12.9300
    12.9916  13.0095  13.0255  13.0811  13.1219  13.1481  13.1550  13.1989
    13.2322  13.2376  13.2499  13.2526  13.2712  13.2813  13.3125  13.3486
    13.3592  13.3826  13.3966  13.4148  13.4270  13.6892  13.6979  13.7375
    14.1272  14.4918  14.5230  14.5901  14.6018  14.6235  14.6272  14.6428
    14.6686  14.6765  14.6821  14.6875  14.7082  14.7176  14.7381  14.7641
    14.7751  14.7785  14.7836  14.7963  14.8049  14.8106  14.8188  14.8207
    14.8330  14.8530  14.8677  14.8761  14.8788  14.8917  14.9006  14.9170
    14.9203  14.9257  14.9295  14.9359  14.9406  14.9429  14.9576  14.9789
    15.0323  15.0460  15.0492  15.0514  15.0617  15.0794  15.0890  15.0916
    15.1085  15.1189  15.1771  15.1995  15.2023  15.2077  15.2194  15.2331
    15.2410  15.2493  15.2881  15.3142  15.3257  15.3362  15.3516  15.3581
    15.3615  15.3699  15.3795  15.4156  15.4352  15.4358  15.4904  15.4980
    15.5028  15.5118  15.5618  15.6097  15.6189  15.6336  15.6578  15.6644
    15.7069  15.7637  15.8208  15.8688  15.9213  15.9306  15.9412  15.9490
    15.9883  15.9982  16.0007  16.0083  16.0139  16.0251  16.0339  16.0420
    16.0576  16.0632  16.0642  16.0760  16.0820  16.0871  16.1042  16.1194
    16.1745  16.1926  16.1995  16.2068  16.2164  16.2285  16.2398  16.3143
    16.3223  16.3329  16.3382  16.3415  16.3445  16.3616  16.3678  16.3948
    16.4501  16.4551  16.4720  16.4797  16.5489  16.5499  16.5666  16.5745
    16.5883  16.6423  16.6521  16.6727  16.6816  16.6876  16.6924  16.7099
    16.7129  16.7216  16.7234  16.7259  16.7341  16.7447  16.7590  16.7685
    16.7974  16.8158  16.8260  16.8329  16.8428  16.8545  16.8651  16.8992
    16.9197  16.9247  16.9411  16.9492  16.9509  16.9816  16.9873  16.9956
    17.0019  17.0059  17.0077  17.0090  17.0123  17.0303  17.0411  17.0428
    17.0500  17.0551  17.0662  17.0689  17.0753  17.0875  17.0951  17.1000
    17.1062  17.1160  17.1197  17.1596  17.2007  17.2114  17.2139  17.2245
    17.2371  17.2431  17.2504  17.2578  17.2723  17.2758  17.2844  17.3059
    17.3298  17.3661  17.3967  17.4126  17.4234  17.4366  17.4413  17.4501
    17.4730  17.4802  17.4852  17.4993  17.5056  17.5092  17.5133  17.5216
    17.5326  17.5651  17.6491  17.6569  17.6677  17.6880  17.7154  17.7608
    17.8119  17.8302  17.8548  17.8652  17.8818  17.8922  17.8967  17.9044
    17.9288  17.9390  17.9541  17.9658  17.9743  17.9817  17.9898  17.9993
    18.0031  18.0115  18.0203  18.0269  18.0287  18.0307  18.0324  18.0395
    18.0413  18.0465  18.0489  18.0538  18.0621  18.0694  18.0759  18.0779
    18.0844  18.0855  18.0971  18.1010  18.1041  18.1126  18.1220  18.1588
    18.1729  18.1778  18.1814  18.1846  18.1917  18.1957  18.2004  18.2020
    18.2067  18.2152  18.2294  18.2409  18.2623  18.2704  18.2719  18.3015
    18.3059  18.3253  18.3313  18.3419  18.3733  18.3878  18.3952  18.4060
    18.4064  18.4102  18.4192  18.4329  18.4350  18.4489  18.4742  18.5079
    18.5246  18.5765  18.6221  18.7815  18.8627  18.9321  18.9925  19.0431
    19.0578  19.0903  19.0927  19.1634  19.1682  19.2295  19.2595  19.2718
    19.2729  19.2763  19.2986  19.2996  19.3144  19.3431  19.4653  19.4895
    19.5048  19.5158  19.5443  19.5601  19.6066  19.6117  19.6545  19.6892
    19.6930  19.7032  19.7076  19.7330  19.7523  19.7990  19.8237  19.8343
    19.8360  19.8971  19.9259  19.9770  20.0315  20.0385  20.0754  20.0968
    20.1141  20.1223  20.1397  20.1536  20.1877  20.2359  20.2780  20.3500
    20.4138  20.4207  20.4316  20.4925  20.4946  20.5199  20.5773  20.5974
    20.6117  20.6390  20.7531  20.7577  20.7721  20.8110  21.0610  21.1726
    21.3566  21.4241  21.4681  21.4766  21.7536  21.8110  21.9072  22.0029

     occupation numbers 
     1.0000   1.0000   1.0000   1.0000   1.0000   1.0000   1.0000   1.0000
     1.0000   1.0000   1.0000   1.0000   1.0000   1.0000   1.0000   1.0000
     1.0000   1.0000   1.0000   1.0000   1.0000   1.0000   1.0000   1.0000
     1.0000   1.0000   1.0000   1.0000   1.0000   1.0000   1.0000   1.0000
     1.0000   1.0000   1.0000   1.0000   1.0000   1.0000   1.0000   1.0000
     1.0000   1.0000   1.0000   1.0000   1.0000   1.0000   1.0000   1.0000
     1.0000   1.0000   1.0000   1.0000   1.0000   1.0000   1.0000   1.0000
     1.0000   1.0000   1.0000   1.0000   1.0000   1.0000   1.0000   1.0000
     1.0000   1.0000   1.0000   1.0000   1.0000   1.0000   1.0000   1.0000
     1.0000   1.0000   1.0000   1.0000   1.0000   1.0000   1.0000   1.0000
     1.0000   1.0000   1.0000   1.0000   1.0000   1.0000   1.0000   1.0000
     1.0000   1.0000   1.0000   1.0000   1.0000   1.0000   1.0000   1.0000
     1.0000   1.0000   1.0000   1.0000   1.0000   1.0000   1.0000   1.0000
     1.0000   1.0000   1.0000   1.0000   1.0000   1.0000   1.0000   1.0000
     1.0000   1.0000   1.0000   1.0000   1.0000   1.0000   1.0000   1.0000
     1.0000   1.0000   1.0000   1.0000   1.0000   1.0000   1.0000   1.0000
     1.0000   1.0000   1.0000   1.0000   1.0000   1.0000   1.0000   1.0000
     1.0000   1.0000   1.0000   1.0000   1.0000   1.0000   1.0000   1.0000
     1.0000   1.0000   1.0000   1.0000   1.0000   1.0000   1.0000   1.0000
     1.0000   1.0000   1.0000   1.0000   1.0000   1.0000   1.0000   1.0000
     1.0000   1.0000   1.0000   1.0000   1.0000   1.0000   1.0000   1.0000
     1.0000   1.0000   1.0000   1.0000   1.0000   1.0000   1.0000   1.0000
     1.0000   1.0000   1.0000   1.0000   1.0000   1.0000   1.0000   1.0000
     1.0000   1.0000   1.0000   1.0000   1.0000   1.0000   1.0000   1.0000
     1.0000   1.0000   1.0000   1.0000   1.0000   1.0000   1.0000   1.0000
     1.0000   1.0000   1.0000   1.0000   1.0000   1.0000   1.0000   1.0000
     1.0000   1.0000   1.0000   1.0000   1.0000   1.0000   1.0000   1.0000
     1.0000   1.0000   1.0000   1.0000   1.0000   1.0000   1.0000   1.0000
     1.0000   1.0000   1.0000   1.0000   1.0000   1.0000   1.0000   1.0000
     1.0000   1.0000   1.0000   1.0000   1.0000   1.0000   1.0000   1.0000
     1.0000   1.0000   1.0000   1.0000   1.0000   1.0000   1.0000   1.0000
     1.0000   1.0000   1.0000   1.0000   1.0000   1.0000   1.0000   1.0000
     1.0000   1.0000   1.0000   1.0000   1.0000   1.0000   1.0000   1.0000
     1.0000   1.0000   1.0000   1.0000   1.0000   1.0000   1.0000   1.0000
     1.0000   1.0000   1.0000   1.0000   1.0000   1.0000   1.0000   1.0000
     1.0000   1.0000   1.0000   1.0000   1.0000   1.0000   1.0000   1.0000
     1.0000   1.0000   1.0000   1.0000   1.0000   1.0000   1.0000   1.0000
     1.0000   1.0000   1.0000   1.0000   1.0000   1.0000   1.0000   1.0000
     1.0000   1.0000   1.0000   1.0000   1.0000   1.0000   1.0000   1.0000
     1.0000   1.0000   1.0000   1.0000   1.0000   1.0000   1.0000   1.0000
     1.0000   1.0000   1.0000   1.0000   1.0000   1.0000   1.0000   1.0000
     1.0000   1.0000   1.0000   1.0000   1.0000   1.0000   1.0000   1.0000
     1.0000   1.0000   1.0000   1.0000   1.0000   1.0000   1.0000   1.0000
     1.0000   1.0000   1.0000   1.0000   1.0000   1.0000   1.0000   1.0000
     1.0000   1.0000   1.0000   1.0000   1.0000   1.0000   1.0000   1.0000
     1.0000   1.0000   1.0000   1.0000   1.0000   1.0000   1.0000   1.0000
     1.0000   1.0000   1.0000   1.0000   1.0000   1.0000   1.0000   1.0000
     1.0000   1.0000   1.0000   1.0000   1.0000   1.0000   1.0000   1.0000
     1.0000   1.0000   1.0000   1.0000   1.0000   1.0000   1.0000   1.0000
     1.0000   1.0000   1.0000   1.0000   1.0000   1.0000   1.0000   1.0000
     1.0000   1.0000   1.0000   1.0000   1.0000   1.0000   1.0000   1.0000
     1.0000   1.0000   1.0000   1.0000   1.0000   1.0000   1.0000   1.0000
     1.0000   1.0000   1.0000   1.0000   1.0000   1.0000   1.0000   1.0000
     1.0000   1.0000   1.0000   1.0000   1.0000   1.0000   1.0000   1.0000
     1.0000   1.0000   1.0000   1.0000   1.0000   1.0000   1.0000   1.0000
     1.0000   1.0000   1.0000   1.0000   1.0000   1.0000   1.0000   1.0000
     1.0000   1.0000   1.0000   1.0000   1.0000   1.0000   1.0000   1.0000
     1.0000   1.0000   1.0000   1.0000   1.0000   1.0000   1.0000   1.0000
     1.0000   1.0000   1.0000   1.0000   1.0000   1.0000   1.0000   1.0000
     1.0000   1.0000   1.0000   1.0000   1.0000   1.0000   1.0000   1.0000
     1.0000   1.0000   1.0000   1.0000   1.0000   1.0000   1.0000   1.0000
     1.0000   1.0000   1.0000   1.0000   1.0000   1.0000   1.0000   1.0000
     1.0000   1.0000   1.0000   1.0000   1.0000   1.0000   1.0000   1.0000
     1.0000   1.0000   1.0000   1.0000   1.0000   1.0000   1.0000   1.0000
     1.0000   1.0000   1.0000   1.0000   1.0000   1.0000   1.0000   1.0000
     1.0000   1.0000   1.0000   1.0000   1.0000   1.0000   1.0000   1.0000
     1.0000   1.0000   1.0000   1.0000   1.0000   1.0000   1.0000   1.0000
     1.0000   1.0000   1.0000   1.0000   1.0000   1.0000   1.0000   1.0000
     1.0000   1.0000   1.0000   1.0000   1.0000   1.0000   1.0000   1.0000
     1.0000   1.0000   0.9999   0.9999   0.9997   0.9997   0.9996   0.9995
     0.9994   0.9984   0.9981   0.9974   0.9970   0.9967   0.9964   0.9953
     0.9951   0.9944   0.9943   0.9940   0.9933   0.9922   0.9904   0.9891
     0.9839   0.9797   0.9769   0.9749   0.9717   0.9676   0.9634   0.9467
     0.9341   0.9307   0.9186   0.9121   0.9107   0.8821   0.8761   0.8670
     0.8600   0.8553   0.8531   0.8515   0.8475   0.8244   0.8096   0.8072
     0.7968   0.7891   0.7721   0.7678   0.7576   0.7374   0.7243   0.7157
     0.7047   0.6869   0.6800   0.6028   0.5187   0.4966   0.4913   0.4694
     0.4434   0.4312   0.4163   0.4014   0.3724   0.3655   0.3489   0.3086
     0.2663   0.2082   0.1656   0.1458   0.1334   0.1192   0.1143   0.1058
     0.0856   0.0799   0.0761   0.0661   0.0621   0.0598   0.0573   0.0525
     0.0467   0.0324   0.0112   0.0101   0.0086   0.0065   0.0043   0.0021
     0.0009   0.0006   0.0004   0.0003   0.0002   0.0002   0.0002   0.0002
     0.0001   0.0001   0.0001   0.0000   0.0000   0.0000   0.0000   0.0000
     0.0000   0.0000   0.0000   0.0000   0.0000   0.0000   0.0000   0.0000
     0.0000   0.0000   0.0000   0.0000   0.0000   0.0000   0.0000   0.0000
     0.0000   0.0000   0.0000   0.0000   0.0000   0.0000   0.0000   0.0000
     0.0000   0.0000   0.0000   0.0000   0.0000   0.0000   0.0000   0.0000
     0.0000   0.0000   0.0000   0.0000   0.0000   0.0000   0.0000   0.0000
     0.0000   0.0000   0.0000   0.0000   0.0000   0.0000   0.0000   0.0000
     0.0000   0.0000   0.0000   0.0000   0.0000   0.0000   0.0000   0.0000
     0.0000   0.0000   0.0000   0.0000   0.0000   0.0000   0.0000   0.0000
     0.0000   0.0000   0.0000   0.0000   0.0000   0.0000   0.0000   0.0000
     0.0000   0.0000   0.0000   0.0000   0.0000   0.0000   0.0000   0.0000
     0.0000   0.0000   0.0000   0.0000   0.0000   0.0000   0.0000   0.0000
     0.0000   0.0000   0.0000   0.0000   0.0000   0.0000   0.0000   0.0000
     0.0000   0.0000   0.0000   0.0000   0.0000   0.0000   0.0000   0.0000
     0.0000   0.0000   0.0000   0.0000   0.0000   0.0000   0.0000   0.0000
     0.0000   0.0000   0.0000   0.0000   0.0000   0.0000   0.0000   0.0000
     0.0000   0.0000   0.0000   0.0000   0.0000   0.0000   0.0000   0.0000
     0.0000   0.0000   0.0000   0.0000   0.0000   0.0000   0.0000   0.0000

          k = 0.0000 0.2887-0.5700 (100576 PWs)   bands (ev):

   -69.1426 -69.1352 -69.1351 -69.0493 -69.0488 -69.0381 -69.0378 -69.0377
   -69.0374 -69.0360 -69.0359 -69.0354 -69.0171 -69.0169 -69.0166 -69.0166
   -69.0165 -69.0162 -69.0118 -69.0117 -69.0115 -69.0052 -69.0050 -69.0048
   -69.0048 -69.0048 -69.0045 -69.0045 -69.0045 -69.0042 -69.0024 -69.0021
   -69.0021 -69.0020 -69.0019 -69.0018 -68.6383 -68.6383 -68.6382 -68.6381
   -68.6378 -68.6377 -68.6372 -68.6372 -68.6372 -68.6371 -68.6370 -68.6370
   -68.6370 -68.6370 -68.6369 -68.6369 -68.6367 -68.6365 -68.6359 -68.6357
   -68.6356 -68.6340 -68.6335 -68.6334 -68.6244 -68.6244 -68.6242 -68.6242
   -68.6241 -68.6241 -68.6180 -68.6179 -68.6175 -68.6175 -68.6174 -68.6174
   -35.5046 -35.4329 -35.4327 -35.3334 -35.3330 -35.3033 -35.3027 -35.3023
   -35.2963 -35.2957 -35.2955 -35.2951 -35.2948 -35.2944 -35.2892 -35.2891
   -35.2654 -35.2607 -35.2604 -35.2601 -35.2599 -35.2444 -35.2439 -35.2417
   -35.2313 -35.2300 -35.2297 -35.2269 -35.2265 -35.2264 -35.2253 -35.2250
   -35.2250 -35.2247 -35.2234 -35.2233 -35.2232 -35.2226 -35.2207 -35.2056
   -35.2051 -35.2046 -35.2044 -35.1883 -35.1855 -35.1850 -35.1838 -35.1813
   -35.1743 -35.1736 -35.1733 -35.1724 -35.1695 -35.1694 -35.1694 -35.1691
   -35.1691 -35.1668 -35.1667 -35.1666 -35.1662 -35.1660 -35.1651 -35.1585
   -35.1566 -35.1562 -35.1550 -35.1532 -35.1528 -35.1517 -35.1508 -35.1505
   -35.1063 -35.0952 -35.0951 -35.0665 -35.0574 -35.0502 -35.0499 -35.0467
   -35.0461 -35.0410 -35.0403 -35.0400 -35.0332 -35.0330 -35.0311 -35.0302
   -35.0269 -35.0261 -35.0249 -35.0240 -35.0204 -35.0194 -35.0169 -35.0134
   -35.0129 -35.0125 -35.0110 -35.0100 -35.0097 -35.0091 -35.0089 -35.0085
   -35.0070 -35.0065 -35.0051 -35.0047 -34.8363 -34.8320 -34.8313 -34.8277
   -34.8277 -34.8276 -34.8275 -34.8273 -34.8272 -34.8264 -34.8259 -34.8259
   -34.8258 -34.8256 -34.8254 -34.8243 -34.8235 -34.8230 -34.8226 -34.8218
   -34.8213 -34.8212 -34.8199 -34.8193 -34.8139 -34.8136 -34.8127 -34.8125
   -34.8120 -34.8112 -34.8022 -34.8004 -34.8001 -34.7994 -34.7991 -34.7979
   -34.7663 -34.7661 -34.7652 -34.7645 -34.7623 -34.7622 -34.7621 -34.7618
   -34.7617 -34.7613 -34.7613 -34.7611 -34.7610 -34.7602 -34.7596 -34.7593
   -34.7590 -34.7587 -34.7585 -34.7561 -34.7559 -34.7552 -34.7547 -34.7545
   -34.7545 -34.7537 -34.7533 -34.7507 -34.7489 -34.7483 -34.7481 -34.7469
   -34.7466 -34.7455 -34.7452 -34.7415 -34.7033 -34.6999 -34.6992 -34.6970
   -34.6968 -34.6964 -34.6933 -34.6922 -34.6882 -34.6880 -34.6873 -34.6870
   -34.6852 -34.6845 -34.6842 -34.6837 -34.6831 -34.6826 -34.6814 -34.6760
   -34.6757 -34.6750 -34.6744 -34.6742 -34.6739 -34.6728 -34.6702 -34.6699
   -34.6697 -34.6693 -34.6646 -34.6643 -34.6636 -34.6633 -34.6608 -34.6608
     3.4412   3.6375   3.9472   4.1720   4.2860   4.3955   4.4258   4.4424
     4.7402   4.8361   4.8597   4.8785   4.9943   5.0198   5.1795   5.3473
     5.3871   5.4197   5.4358   5.4424   5.4771   5.4909   5.5046   5.5361
     5.5543   5.5637   5.5679   5.5752   5.5853   5.5946   5.8728   5.8869
     5.9382   5.9398   6.0309   6.3007   8.2349   9.8353   9.9306   9.9780
     9.9864   9.9943  10.0142  10.0362  10.0412  10.0434  10.0460  10.0571
    10.0657  10.3956  10.5772  10.6009  10.6672  10.6894  10.7339  10.7497
    10.7693  10.7768  10.8033  10.8096  10.8153  10.8234  10.9805  11.2057
    11.2118  11.2167  11.2273  11.3548  11.4979  11.5271  11.5377  11.5619
    11.5821  11.5872  11.6174  11.6569  11.6802  11.6983  11.8228  11.9022
    11.9313  12.1199  12.1213  12.1558  12.1688  12.2026  12.2031  12.2702
    12.3140  12.3163  12.3341  12.3438  12.3852  12.4310  12.4381  12.4675
    12.4686  12.5138  12.5442  12.6303  12.6387  12.6463  12.6464  12.6564
    12.6579  12.6729  12.6802  12.6863  12.6994  12.7077  12.7097  12.7166
    12.7546  12.7585  12.7602  12.7929  12.7946  12.8132  12.8183  12.8444
    12.8508  12.8567  12.8577  12.8657  12.8679  13.0180  13.0207  13.0663
    13.0675  13.0777  13.0898  13.1362  13.1637  13.1717  13.2193  13.2369
    13.2728  13.2798  13.5391  13.5440  13.5464  13.5549  13.5560  13.5611
    14.1847  14.5378  14.5676  14.5836  14.5927  14.6453  14.6489  14.6743
    14.6841  14.6844  14.7047  14.7196  14.7208  14.7263  14.7275  14.7342
    14.7455  14.7457  14.7527  14.7542  14.7784  14.7935  14.8003  14.8393
    14.8544  14.8737  14.8920  14.8959  14.8968  14.9284  14.9334  14.9354
    14.9420  14.9581  14.9629  14.9772  14.9807  14.9812  14.9894  14.9928
    15.0244  15.0283  15.0445  15.0460  15.0504  15.0568  15.0569  15.0700
    15.0999  15.1082  15.1105  15.1243  15.1324  15.1543  15.1934  15.2196
    15.2539  15.2655  15.2745  15.2766  15.2796  15.3207  15.3308  15.3323
    15.3485  15.3554  15.3921  15.4012  15.4039  15.4123  15.4153  15.4593
    15.4922  15.5006  15.5218  15.5409  15.7316  15.7393  15.7600  15.7617
    15.7763  15.7913  15.7937  15.7979  15.8352  15.8467  15.9064  15.9433
    15.9452  15.9749  16.0143  16.0476  16.0499  16.0619  16.0729  16.0752
    16.0765  16.0797  16.0953  16.1060  16.1129  16.1194  16.1993  16.2036
    16.2207  16.2213  16.2455  16.2487  16.2511  16.2574  16.2848  16.3379
    16.3438  16.3724  16.3800  16.3822  16.3837  16.3861  16.4296  16.4336
    16.4389  16.4426  16.4502  16.5473  16.5613  16.5685  16.5740  16.5793
    16.5826  16.6402  16.6644  16.6790  16.6842  16.6870  16.7007  16.7056
    16.7085  16.7126  16.7247  16.7279  16.7393  16.7665  16.7720  16.7792
    16.7900  16.7984  16.8148  16.8190  16.8325  16.8325  16.8482  16.8531
    16.8866  16.8893  16.9162  16.9317  16.9346  16.9448  16.9456  16.9535
    16.9646  16.9672  16.9709  16.9775  16.9778  16.9882  17.0014  17.0099
    17.0229  17.0246  17.0528  17.0979  17.1104  17.1177  17.1235  17.1268
    17.1304  17.1330  17.1540  17.1547  17.1605  17.1624  17.1628  17.1767
    17.1906  17.1947  17.1952  17.2082  17.2284  17.2379  17.2539  17.2576
    17.3055  17.3557  17.3680  17.4064  17.4195  17.4223  17.4228  17.4497
    17.4812  17.4947  17.4980  17.5178  17.5202  17.5232  17.5469  17.5563
    17.5739  17.5760  17.5814  17.5849  17.6191  17.6350  17.7654  17.7909
    17.7943  17.8095  17.8600  17.8771  17.9115  17.9305  17.9336  17.9386
    17.9507  17.9549  17.9604  17.9650  17.9707  17.9761  17.9863  17.9919
    18.0064  18.0134  18.0154  18.0260  18.0273  18.0331  18.0347  18.0357
    18.0372  18.0447  18.0467  18.0514  18.0532  18.0556  18.0630  18.0719
    18.0886  18.0917  18.0967  18.1009  18.1035  18.1179  18.1313  18.1885
    18.1921  18.1949  18.1987  18.2002  18.2034  18.2055  18.2080  18.2113
    18.2175  18.2277  18.2555  18.2675  18.2695  18.2778  18.2869  18.3157
    18.3211  18.3346  18.4205  18.4251  18.4262  18.4297  18.4309  18.4336
    18.4364  18.4395  18.4444  18.4510  18.4740  18.4761  18.4807  18.4849
    18.5963  18.6141  18.6206  18.6585  18.8844  18.8899  18.9796  19.0485
    19.0702  19.0780  19.0829  19.0865  19.0916  19.1379  19.1855  19.2261
    19.2394  19.2811  19.2960  19.3173  19.3278  19.3318  19.4575  19.4829
    19.4926  19.4990  19.5163  19.5831  19.5969  19.6069  19.6171  19.6219
    19.6290  19.6319  19.6686  19.7757  19.8178  19.8439  19.8669  19.8800
    19.9152  19.9222  19.9496  19.9575  19.9664  19.9797  19.9810  20.1617
    20.1827  20.1915  20.2010  20.2152  20.2403  20.2587  20.2680  20.2911
    20.3340  20.3342  20.3448  20.3642  20.3652  20.3753  20.3858  20.4089
    20.4329  20.4530  20.7001  20.7143  20.9772  20.9921  21.0469  21.0614
    21.2143  21.2682  21.3190  21.3266  21.6825  22.0082  22.1673  22.2519

     occupation numbers 
     1.0000   1.0000   1.0000   1.0000   1.0000   1.0000   1.0000   1.0000
     1.0000   1.0000   1.0000   1.0000   1.0000   1.0000   1.0000   1.0000
     1.0000   1.0000   1.0000   1.0000   1.0000   1.0000   1.0000   1.0000
     1.0000   1.0000   1.0000   1.0000   1.0000   1.0000   1.0000   1.0000
     1.0000   1.0000   1.0000   1.0000   1.0000   1.0000   1.0000   1.0000
     1.0000   1.0000   1.0000   1.0000   1.0000   1.0000   1.0000   1.0000
     1.0000   1.0000   1.0000   1.0000   1.0000   1.0000   1.0000   1.0000
     1.0000   1.0000   1.0000   1.0000   1.0000   1.0000   1.0000   1.0000
     1.0000   1.0000   1.0000   1.0000   1.0000   1.0000   1.0000   1.0000
     1.0000   1.0000   1.0000   1.0000   1.0000   1.0000   1.0000   1.0000
     1.0000   1.0000   1.0000   1.0000   1.0000   1.0000   1.0000   1.0000
     1.0000   1.0000   1.0000   1.0000   1.0000   1.0000   1.0000   1.0000
     1.0000   1.0000   1.0000   1.0000   1.0000   1.0000   1.0000   1.0000
     1.0000   1.0000   1.0000   1.0000   1.0000   1.0000   1.0000   1.0000
     1.0000   1.0000   1.0000   1.0000   1.0000   1.0000   1.0000   1.0000
     1.0000   1.0000   1.0000   1.0000   1.0000   1.0000   1.0000   1.0000
     1.0000   1.0000   1.0000   1.0000   1.0000   1.0000   1.0000   1.0000
     1.0000   1.0000   1.0000   1.0000   1.0000   1.0000   1.0000   1.0000
     1.0000   1.0000   1.0000   1.0000   1.0000   1.0000   1.0000   1.0000
     1.0000   1.0000   1.0000   1.0000   1.0000   1.0000   1.0000   1.0000
     1.0000   1.0000   1.0000   1.0000   1.0000   1.0000   1.0000   1.0000
     1.0000   1.0000   1.0000   1.0000   1.0000   1.0000   1.0000   1.0000
     1.0000   1.0000   1.0000   1.0000   1.0000   1.0000   1.0000   1.0000
     1.0000   1.0000   1.0000   1.0000   1.0000   1.0000   1.0000   1.0000
     1.0000   1.0000   1.0000   1.0000   1.0000   1.0000   1.0000   1.0000
     1.0000   1.0000   1.0000   1.0000   1.0000   1.0000   1.0000   1.0000
     1.0000   1.0000   1.0000   1.0000   1.0000   1.0000   1.0000   1.0000
     1.0000   1.0000   1.0000   1.0000   1.0000   1.0000   1.0000   1.0000
     1.0000   1.0000   1.0000   1.0000   1.0000   1.0000   1.0000   1.0000
     1.0000   1.0000   1.0000   1.0000   1.0000   1.0000   1.0000   1.0000
     1.0000   1.0000   1.0000   1.0000   1.0000   1.0000   1.0000   1.0000
     1.0000   1.0000   1.0000   1.0000   1.0000   1.0000   1.0000   1.0000
     1.0000   1.0000   1.0000   1.0000   1.0000   1.0000   1.0000   1.0000
     1.0000   1.0000   1.0000   1.0000   1.0000   1.0000   1.0000   1.0000
     1.0000   1.0000   1.0000   1.0000   1.0000   1.0000   1.0000   1.0000
     1.0000   1.0000   1.0000   1.0000   1.0000   1.0000   1.0000   1.0000
     1.0000   1.0000   1.0000   1.0000   1.0000   1.0000   1.0000   1.0000
     1.0000   1.0000   1.0000   1.0000   1.0000   1.0000   1.0000   1.0000
     1.0000   1.0000   1.0000   1.0000   1.0000   1.0000   1.0000   1.0000
     1.0000   1.0000   1.0000   1.0000   1.0000   1.0000   1.0000   1.0000
     1.0000   1.0000   1.0000   1.0000   1.0000   1.0000   1.0000   1.0000
     1.0000   1.0000   1.0000   1.0000   1.0000   1.0000   1.0000   1.0000
     1.0000   1.0000   1.0000   1.0000   1.0000   1.0000   1.0000   1.0000
     1.0000   1.0000   1.0000   1.0000   1.0000   1.0000   1.0000   1.0000
     1.0000   1.0000   1.0000   1.0000   1.0000   1.0000   1.0000   1.0000
     1.0000   1.0000   1.0000   1.0000   1.0000   1.0000   1.0000   1.0000
     1.0000   1.0000   1.0000   1.0000   1.0000   1.0000   1.0000   1.0000
     1.0000   1.0000   1.0000   1.0000   1.0000   1.0000   1.0000   1.0000
     1.0000   1.0000   1.0000   1.0000   1.0000   1.0000   1.0000   1.0000
     1.0000   1.0000   1.0000   1.0000   1.0000   1.0000   1.0000   1.0000
     1.0000   1.0000   1.0000   1.0000   1.0000   1.0000   1.0000   1.0000
     1.0000   1.0000   1.0000   1.0000   1.0000   1.0000   1.0000   1.0000
     1.0000   1.0000   1.0000   1.0000   1.0000   1.0000   1.0000   1.0000
     1.0000   1.0000   1.0000   1.0000   1.0000   1.0000   1.0000   1.0000
     1.0000   1.0000   1.0000   1.0000   1.0000   1.0000   1.0000   1.0000
     1.0000   1.0000   1.0000   1.0000   1.0000   1.0000   1.0000   1.0000
     1.0000   1.0000   1.0000   1.0000   1.0000   1.0000   1.0000   1.0000
     1.0000   1.0000   1.0000   1.0000   1.0000   1.0000   1.0000   1.0000
     1.0000   1.0000   1.0000   1.0000   1.0000   1.0000   1.0000   1.0000
     1.0000   1.0000   1.0000   1.0000   1.0000   1.0000   1.0000   1.0000
     1.0000   1.0000   1.0000   1.0000   1.0000   1.0000   1.0000   1.0000
     1.0000   1.0000   1.0000   1.0000   1.0000   1.0000   1.0000   1.0000
     1.0000   1.0000   1.0000   1.0000   1.0000   1.0000   1.0000   1.0000
     1.0000   1.0000   1.0000   1.0000   1.0000   1.0000   1.0000   1.0000
     1.0000   1.0000   1.0000   1.0000   1.0000   1.0000   1.0000   1.0000
     1.0000   1.0000   1.0000   1.0000   1.0000   1.0000   1.0000   1.0000
     1.0000   1.0000   1.0000   1.0000   1.0000   1.0000   1.0000   1.0000
     1.0000   1.0000   1.0000   1.0000   1.0000   1.0000   1.0000   1.0000
     1.0000   1.0000   1.0000   1.0000   1.0000   1.0000   1.0000   1.0000
     1.0000   1.0000   1.0000   0.9997   0.9996   0.9996   0.9995   0.9995
     0.9994   0.9985   0.9977   0.9971   0.9968   0.9967   0.9959   0.9956
     0.9954   0.9951   0.9941   0.9939   0.9927   0.9894   0.9885   0.9874
     0.9854   0.9837   0.9799   0.9789   0.9750   0.9750   0.9699   0.9681
     0.9534   0.9521   0.9364   0.9257   0.9236   0.9157   0.9151   0.9085
     0.8986   0.8962   0.8927   0.8863   0.8859   0.8752   0.8605   0.8504
     0.8342   0.8319   0.7926   0.7194   0.6971   0.6838   0.6730   0.6667
     0.6599   0.6549   0.6139   0.6125   0.6009   0.5972   0.5963   0.5681
     0.5396   0.5310   0.5300   0.5031   0.4612   0.4418   0.4092   0.4016
     0.3092   0.2240   0.2053   0.1534   0.1378   0.1346   0.1340   0.1061
     0.0792   0.0693   0.0671   0.0547   0.0533   0.0516   0.0399   0.0358
     0.0292   0.0285   0.0267   0.0256   0.0167   0.0135   0.0019   0.0013
     0.0012   0.0009   0.0004   0.0003   0.0001   0.0001   0.0001   0.0001
     0.0001   0.0001   0.0000   0.0000   0.0000   0.0000   0.0000   0.0000
     0.0000   0.0000   0.0000   0.0000   0.0000   0.0000   0.0000   0.0000
     0.0000   0.0000   0.0000   0.0000   0.0000   0.0000   0.0000   0.0000
     0.0000   0.0000   0.0000   0.0000   0.0000   0.0000   0.0000   0.0000
     0.0000   0.0000   0.0000   0.0000   0.0000   0.0000   0.0000   0.0000
     0.0000   0.0000   0.0000   0.0000   0.0000   0.0000   0.0000   0.0000
     0.0000   0.0000   0.0000   0.0000   0.0000   0.0000   0.0000   0.0000
     0.0000   0.0000   0.0000   0.0000   0.0000   0.0000   0.0000   0.0000
     0.0000   0.0000   0.0000   0.0000   0.0000   0.0000   0.0000   0.0000
     0.0000   0.0000   0.0000   0.0000   0.0000   0.0000   0.0000   0.0000
     0.0000   0.0000   0.0000   0.0000   0.0000   0.0000   0.0000   0.0000
     0.0000   0.0000   0.0000   0.0000   0.0000   0.0000   0.0000   0.0000
     0.0000   0.0000   0.0000   0.0000   0.0000   0.0000   0.0000   0.0000
     0.0000   0.0000   0.0000   0.0000   0.0000   0.0000   0.0000   0.0000
     0.0000   0.0000   0.0000   0.0000   0.0000   0.0000   0.0000   0.0000
     0.0000   0.0000   0.0000   0.0000   0.0000   0.0000   0.0000   0.0000
     0.0000   0.0000   0.0000   0.0000   0.0000   0.0000   0.0000   0.0000
     0.0000   0.0000   0.0000   0.0000   0.0000   0.0000   0.0000   0.0000

          k = 0.0000-0.5774 0.0000 (100622 PWs)   bands (ev):

   -69.1426 -69.1352 -69.1351 -69.0493 -69.0488 -69.0381 -69.0378 -69.0377
   -69.0374 -69.0360 -69.0359 -69.0354 -69.0170 -69.0169 -69.0166 -69.0165
   -69.0165 -69.0162 -69.0118 -69.0118 -69.0115 -69.0051 -69.0051 -69.0049
   -69.0048 -69.0048 -69.0045 -69.0045 -69.0045 -69.0042 -69.0023 -69.0022
   -69.0021 -69.0019 -69.0019 -69.0018 -68.6383 -68.6383 -68.6382 -68.6382
   -68.6378 -68.6377 -68.6372 -68.6372 -68.6372 -68.6371 -68.6370 -68.6370
   -68.6370 -68.6370 -68.6369 -68.6369 -68.6367 -68.6365 -68.6358 -68.6357
   -68.6356 -68.6340 -68.6335 -68.6334 -68.6244 -68.6244 -68.6242 -68.6242
   -68.6241 -68.6241 -68.6180 -68.6179 -68.6175 -68.6175 -68.6174 -68.6174
   -35.5047 -35.4329 -35.4328 -35.3334 -35.3329 -35.3031 -35.3028 -35.3023
   -35.2963 -35.2956 -35.2952 -35.2952 -35.2950 -35.2945 -35.2892 -35.2891
   -35.2654 -35.2605 -35.2602 -35.2602 -35.2599 -35.2443 -35.2431 -35.2420
   -35.2308 -35.2297 -35.2293 -35.2284 -35.2262 -35.2254 -35.2250 -35.2248
   -35.2248 -35.2246 -35.2246 -35.2242 -35.2236 -35.2232 -35.2220 -35.2053
   -35.2046 -35.2045 -35.2042 -35.1873 -35.1860 -35.1849 -35.1837 -35.1813
   -35.1736 -35.1734 -35.1729 -35.1727 -35.1701 -35.1692 -35.1688 -35.1686
   -35.1685 -35.1682 -35.1675 -35.1667 -35.1665 -35.1660 -35.1655 -35.1581
   -35.1574 -35.1563 -35.1538 -35.1532 -35.1524 -35.1519 -35.1514 -35.1508
   -35.1060 -35.0951 -35.0949 -35.0660 -35.0583 -35.0496 -35.0493 -35.0450
   -35.0442 -35.0433 -35.0403 -35.0386 -35.0370 -35.0349 -35.0312 -35.0295
   -35.0285 -35.0258 -35.0221 -35.0215 -35.0194 -35.0182 -35.0173 -35.0160
   -35.0153 -35.0151 -35.0142 -35.0127 -35.0119 -35.0102 -35.0090 -35.0075
   -35.0067 -35.0036 -35.0024 -34.9997 -34.8300 -34.8300 -34.8299 -34.8298
   -34.8296 -34.8295 -34.8275 -34.8274 -34.8268 -34.8266 -34.8266 -34.8264
   -34.8264 -34.8260 -34.8258 -34.8254 -34.8243 -34.8240 -34.8239 -34.8226
   -34.8223 -34.8211 -34.8181 -34.8178 -34.8156 -34.8149 -34.8147 -34.8110
   -34.8095 -34.8084 -34.8040 -34.8009 -34.8006 -34.7987 -34.7984 -34.7957
   -34.7697 -34.7687 -34.7671 -34.7650 -34.7647 -34.7643 -34.7635 -34.7624
   -34.7620 -34.7617 -34.7613 -34.7609 -34.7597 -34.7596 -34.7578 -34.7573
   -34.7573 -34.7571 -34.7571 -34.7567 -34.7561 -34.7555 -34.7539 -34.7533
   -34.7519 -34.7516 -34.7506 -34.7502 -34.7496 -34.7492 -34.7478 -34.7475
   -34.7467 -34.7464 -34.7460 -34.7437 -34.7007 -34.6995 -34.6992 -34.6981
   -34.6979 -34.6974 -34.6938 -34.6923 -34.6889 -34.6888 -34.6873 -34.6871
   -34.6856 -34.6847 -34.6835 -34.6831 -34.6830 -34.6824 -34.6792 -34.6770
   -34.6757 -34.6756 -34.6745 -34.6733 -34.6725 -34.6717 -34.6715 -34.6706
   -34.6697 -34.6693 -34.6647 -34.6643 -34.6639 -34.6636 -34.6609 -34.6608
     3.3688   3.5873   3.9283   4.1306   4.4060   4.5460   4.5957   4.5990
     4.7288   4.9063   4.9483   4.9531   5.0043   5.0110   5.0641   5.0687
     5.1434   5.2196   5.4221   5.4291   5.4917   5.4978   5.5573   5.5605
     5.6019   5.6055   5.6391   5.6406   5.6759   5.6819   5.6946   5.6981
     5.9956   5.9991   6.0105   6.0178   8.4209   9.9624   9.9678  10.1173
    10.1232  10.1255  10.1638  10.1763  10.3253  10.3350  10.3504  10.3892
    10.4037  10.4608  10.4929  10.4980  10.6737  10.7109  10.7181  10.7234
    10.7341  10.7563  10.7589  10.7599  10.8524  10.8601  10.8665  10.8702
    11.0265  11.1261  11.1443  11.1490  11.2058  11.2122  11.2882  11.4210
    11.4306  11.4446  11.6105  11.6341  11.6369  11.7181  11.7473  11.7640
    11.9350  11.9451  11.9501  11.9515  11.9592  11.9619  12.0040  12.0171
    12.0216  12.0222  12.2446  12.2953  12.3213  12.3232  12.3546  12.3557
    12.3611  12.3633  12.4910  12.5013  12.5090  12.5108  12.5881  12.6105
    12.6141  12.6597  12.7105  12.7156  12.7276  12.7282  12.7340  12.7669
    12.8600  12.8872  12.9002  12.9178  12.9352  12.9473  12.9479  12.9487
    12.9540  12.9560  12.9607  12.9665  13.0794  13.0823  13.0893  13.0914
    13.2850  13.2876  13.2909  13.2992  13.3074  13.3298  13.4087  13.4357
    13.4493  13.4577  13.4880  13.5058  13.7166  13.8321  13.8364  14.1801
    14.2835  14.2922  14.3679  14.5433  14.5720  14.5920  14.6098  14.6142
    14.6440  14.6521  14.6709  14.6735  14.6802  14.7031  14.7318  14.7497
    14.7554  14.7571  14.7587  14.7804  14.7845  14.8098  14.8118  14.8159
    14.8174  14.8192  14.8299  14.8302  14.8360  14.8397  14.8400  14.8502
    14.8866  14.8989  14.8990  14.9150  14.9242  14.9261  14.9359  14.9449
    15.0284  15.0573  15.0771  15.0774  15.0834  15.0970  15.1037  15.1088
    15.1502  15.1827  15.1849  15.1900  15.2002  15.2079  15.2496  15.2665
    15.2775  15.2789  15.3201  15.3218  15.3292  15.3409  15.4094  15.4134
    15.4235  15.4259  15.4265  15.4435  15.4542  15.4591  15.4609  15.4728
    15.4740  15.4817  15.5594  15.5627  15.5717  15.5847  15.5877  15.6202
    15.8816  15.9024  15.9065  15.9130  15.9143  15.9281  15.9770  15.9805
    15.9829  15.9962  16.0081  16.0128  16.0156  16.0173  16.0252  16.0403
    16.0427  16.0543  16.0558  16.0645  16.0680  16.0738  16.0781  16.0789
    16.0818  16.0862  16.0972  16.1025  16.1693  16.1791  16.1833  16.2021
    16.2976  16.3111  16.3251  16.3489  16.3977  16.3986  16.4054  16.4293
    16.4693  16.4703  16.4847  16.4911  16.5421  16.5921  16.6018  16.6035
    16.6214  16.6215  16.6322  16.6369  16.6377  16.6574  16.6869  16.6921
    16.6980  16.7029  16.7268  16.7296  16.7334  16.7485  16.7596  16.7674
    16.8126  16.8126  16.8129  16.8423  16.8436  16.8455  16.8657  16.8696
    16.8837  16.8858  16.9397  16.9553  16.9790  16.9872  16.9886  17.0037
    17.0310  17.0339  17.0383  17.0423  17.0531  17.0551  17.0565  17.0610
    17.0677  17.0710  17.0784  17.0813  17.0944  17.1178  17.1222  17.1308
    17.1866  17.1920  17.1983  17.2198  17.2206  17.2284  17.2317  17.2339
    17.2342  17.2514  17.2541  17.2702  17.2827  17.2888  17.3114  17.3257
    17.3273  17.3278  17.3336  17.3438  17.3860  17.3880  17.4172  17.4368
    17.4480  17.4560  17.4865  17.4928  17.5002  17.5150  17.5450  17.5452
    17.5489  17.5557  17.5590  17.5728  17.7120  17.7190  17.7377  17.7467
    17.8269  17.8330  17.8398  17.8672  17.8713  17.8834  17.8889  17.8922
    17.8995  17.9008  17.9281  17.9287  17.9702  17.9713  17.9774  17.9780
    17.9843  17.9890  17.9959  17.9962  17.9980  18.0149  18.0202  18.0335
    18.0382  18.0443  18.0526  18.0566  18.0583  18.0630  18.0971  18.1098
    18.1268  18.1350  18.1425  18.1491  18.1494  18.1666  18.1755  18.1780
    18.1815  18.1849  18.1870  18.1916  18.1926  18.1952  18.1962  18.1976
    18.1993  18.2046  18.2223  18.2307  18.2710  18.2760  18.2766  18.2799
    18.2841  18.3065  18.3091  18.3116  18.3394  18.3452  18.3472  18.3510
    18.3546  18.3599  18.3601  18.3688  18.4506  18.4536  18.4541  18.4612
    18.5753  18.5958  18.6231  18.6400  18.9927  18.9938  19.0076  19.0115
    19.0301  19.0710  19.2186  19.2289  19.2371  19.2453  19.2640  19.2696
    19.2812  19.2839  19.2863  19.2887  19.2931  19.3036  19.3283  19.3354
    19.4743  19.4892  19.4939  19.4974  19.5314  19.5319  19.5425  19.5471
    19.6300  19.6629  19.6740  19.6783  19.8057  19.8981  19.9601  19.9799
    19.9916  19.9985  20.1592  20.1931  20.2016  20.2076  20.2185  20.2312
    20.2960  20.3081  20.3156  20.3237  20.3249  20.3317  20.3985  20.4219
    20.4367  20.4478  20.4528  20.4543  20.4701  20.4957  20.4960  20.5073
    20.6121  20.7146  20.7452  20.7466  20.8466  20.8542  21.0921  21.1362
    21.2515  21.5550  21.5939  21.6030  21.6890  21.8598  21.8629  21.8656

     occupation numbers 
     1.0000   1.0000   1.0000   1.0000   1.0000   1.0000   1.0000   1.0000
     1.0000   1.0000   1.0000   1.0000   1.0000   1.0000   1.0000   1.0000
     1.0000   1.0000   1.0000   1.0000   1.0000   1.0000   1.0000   1.0000
     1.0000   1.0000   1.0000   1.0000   1.0000   1.0000   1.0000   1.0000
     1.0000   1.0000   1.0000   1.0000   1.0000   1.0000   1.0000   1.0000
     1.0000   1.0000   1.0000   1.0000   1.0000   1.0000   1.0000   1.0000
     1.0000   1.0000   1.0000   1.0000   1.0000   1.0000   1.0000   1.0000
     1.0000   1.0000   1.0000   1.0000   1.0000   1.0000   1.0000   1.0000
     1.0000   1.0000   1.0000   1.0000   1.0000   1.0000   1.0000   1.0000
     1.0000   1.0000   1.0000   1.0000   1.0000   1.0000   1.0000   1.0000
     1.0000   1.0000   1.0000   1.0000   1.0000   1.0000   1.0000   1.0000
     1.0000   1.0000   1.0000   1.0000   1.0000   1.0000   1.0000   1.0000
     1.0000   1.0000   1.0000   1.0000   1.0000   1.0000   1.0000   1.0000
     1.0000   1.0000   1.0000   1.0000   1.0000   1.0000   1.0000   1.0000
     1.0000   1.0000   1.0000   1.0000   1.0000   1.0000   1.0000   1.0000
     1.0000   1.0000   1.0000   1.0000   1.0000   1.0000   1.0000   1.0000
     1.0000   1.0000   1.0000   1.0000   1.0000   1.0000   1.0000   1.0000
     1.0000   1.0000   1.0000   1.0000   1.0000   1.0000   1.0000   1.0000
     1.0000   1.0000   1.0000   1.0000   1.0000   1.0000   1.0000   1.0000
     1.0000   1.0000   1.0000   1.0000   1.0000   1.0000   1.0000   1.0000
     1.0000   1.0000   1.0000   1.0000   1.0000   1.0000   1.0000   1.0000
     1.0000   1.0000   1.0000   1.0000   1.0000   1.0000   1.0000   1.0000
     1.0000   1.0000   1.0000   1.0000   1.0000   1.0000   1.0000   1.0000
     1.0000   1.0000   1.0000   1.0000   1.0000   1.0000   1.0000   1.0000
     1.0000   1.0000   1.0000   1.0000   1.0000   1.0000   1.0000   1.0000
     1.0000   1.0000   1.0000   1.0000   1.0000   1.0000   1.0000   1.0000
     1.0000   1.0000   1.0000   1.0000   1.0000   1.0000   1.0000   1.0000
     1.0000   1.0000   1.0000   1.0000   1.0000   1.0000   1.0000   1.0000
     1.0000   1.0000   1.0000   1.0000   1.0000   1.0000   1.0000   1.0000
     1.0000   1.0000   1.0000   1.0000   1.0000   1.0000   1.0000   1.0000
     1.0000   1.0000   1.0000   1.0000   1.0000   1.0000   1.0000   1.0000
     1.0000   1.0000   1.0000   1.0000   1.0000   1.0000   1.0000   1.0000
     1.0000   1.0000   1.0000   1.0000   1.0000   1.0000   1.0000   1.0000
     1.0000   1.0000   1.0000   1.0000   1.0000   1.0000   1.0000   1.0000
     1.0000   1.0000   1.0000   1.0000   1.0000   1.0000   1.0000   1.0000
     1.0000   1.0000   1.0000   1.0000   1.0000   1.0000   1.0000   1.0000
     1.0000   1.0000   1.0000   1.0000   1.0000   1.0000   1.0000   1.0000
     1.0000   1.0000   1.0000   1.0000   1.0000   1.0000   1.0000   1.0000
     1.0000   1.0000   1.0000   1.0000   1.0000   1.0000   1.0000   1.0000
     1.0000   1.0000   1.0000   1.0000   1.0000   1.0000   1.0000   1.0000
     1.0000   1.0000   1.0000   1.0000   1.0000   1.0000   1.0000   1.0000
     1.0000   1.0000   1.0000   1.0000   1.0000   1.0000   1.0000   1.0000
     1.0000   1.0000   1.0000   1.0000   1.0000   1.0000   1.0000   1.0000
     1.0000   1.0000   1.0000   1.0000   1.0000   1.0000   1.0000   1.0000
     1.0000   1.0000   1.0000   1.0000   1.0000   1.0000   1.0000   1.0000
     1.0000   1.0000   1.0000   1.0000   1.0000   1.0000   1.0000   1.0000
     1.0000   1.0000   1.0000   1.0000   1.0000   1.0000   1.0000   1.0000
     1.0000   1.0000   1.0000   1.0000   1.0000   1.0000   1.0000   1.0000
     1.0000   1.0000   1.0000   1.0000   1.0000   1.0000   1.0000   1.0000
     1.0000   1.0000   1.0000   1.0000   1.0000   1.0000   1.0000   1.0000
     1.0000   1.0000   1.0000   1.0000   1.0000   1.0000   1.0000   1.0000
     1.0000   1.0000   1.0000   1.0000   1.0000   1.0000   1.0000   1.0000
     1.0000   1.0000   1.0000   1.0000   1.0000   1.0000   1.0000   1.0000
     1.0000   1.0000   1.0000   1.0000   1.0000   1.0000   1.0000   1.0000
     1.0000   1.0000   1.0000   1.0000   1.0000   1.0000   1.0000   1.0000
     1.0000   1.0000   1.0000   1.0000   1.0000   1.0000   1.0000   1.0000
     1.0000   1.0000   1.0000   1.0000   1.0000   1.0000   1.0000   1.0000
     1.0000   1.0000   1.0000   1.0000   1.0000   1.0000   1.0000   1.0000
     1.0000   1.0000   1.0000   1.0000   1.0000   1.0000   1.0000   1.0000
     1.0000   1.0000   1.0000   1.0000   1.0000   1.0000   1.0000   1.0000
     1.0000   1.0000   1.0000   1.0000   1.0000   1.0000   1.0000   1.0000
     1.0000   1.0000   1.0000   1.0000   1.0000   1.0000   1.0000   1.0000
     1.0000   1.0000   1.0000   1.0000   1.0000   1.0000   1.0000   1.0000
     1.0000   1.0000   1.0000   1.0000   1.0000   1.0000   1.0000   1.0000
     1.0000   1.0000   1.0000   1.0000   1.0000   1.0000   1.0000   1.0000
     1.0000   1.0000   1.0000   1.0000   1.0000   1.0000   1.0000   1.0000
     1.0000   1.0000   1.0000   1.0000   1.0000   1.0000   1.0000   1.0000
     1.0000   1.0000   1.0000   1.0000   1.0000   1.0000   1.0000   1.0000
     1.0000   1.0000   1.0000   1.0000   1.0000   1.0000   1.0000   1.0000
     0.9999   0.9999   0.9999   0.9999   0.9997   0.9993   0.9992   0.9992
     0.9989   0.9989   0.9987   0.9985   0.9985   0.9979   0.9967   0.9964
     0.9961   0.9958   0.9940   0.9937   0.9933   0.9917   0.9903   0.9892
     0.9805   0.9805   0.9804   0.9719   0.9714   0.9708   0.9631   0.9614
     0.9549   0.9538   0.9197   0.9070   0.8847   0.8763   0.8748   0.8578
     0.8235   0.8195   0.8135   0.8079   0.7921   0.7891   0.7870   0.7802
     0.7698   0.7645   0.7526   0.7477   0.7254   0.6835   0.6754   0.6591
     0.5478   0.5366   0.5237   0.4790   0.4774   0.4613   0.4545   0.4500
     0.4494   0.4141   0.4088   0.3766   0.3522   0.3406   0.2986   0.2734
     0.2705   0.2697   0.2598   0.2430   0.1798   0.1771   0.1404   0.1190
     0.1078   0.1003   0.0751   0.0706   0.0656   0.0563   0.0407   0.0406
     0.0390   0.0361   0.0347   0.0296   0.0045   0.0041   0.0030   0.0026
     0.0007   0.0006   0.0005   0.0003   0.0003   0.0002   0.0002   0.0002
     0.0002   0.0002   0.0001   0.0001   0.0000   0.0000   0.0000   0.0000
     0.0000   0.0000   0.0000   0.0000   0.0000   0.0000   0.0000   0.0000
     0.0000   0.0000   0.0000   0.0000   0.0000   0.0000   0.0000   0.0000
     0.0000   0.0000   0.0000   0.0000   0.0000   0.0000   0.0000   0.0000
     0.0000   0.0000   0.0000   0.0000   0.0000   0.0000   0.0000   0.0000
     0.0000   0.0000   0.0000   0.0000   0.0000   0.0000   0.0000   0.0000
     0.0000   0.0000   0.0000   0.0000   0.0000   0.0000   0.0000   0.0000
     0.0000   0.0000   0.0000   0.0000   0.0000   0.0000   0.0000   0.0000
     0.0000   0.0000   0.0000   0.0000   0.0000   0.0000   0.0000   0.0000
     0.0000   0.0000   0.0000   0.0000   0.0000   0.0000   0.0000   0.0000
     0.0000   0.0000   0.0000   0.0000   0.0000   0.0000   0.0000   0.0000
     0.0000   0.0000   0.0000   0.0000   0.0000   0.0000   0.0000   0.0000
     0.0000   0.0000   0.0000   0.0000   0.0000   0.0000   0.0000   0.0000
     0.0000   0.0000   0.0000   0.0000   0.0000   0.0000   0.0000   0.0000
     0.0000   0.0000   0.0000   0.0000   0.0000   0.0000   0.0000   0.0000
     0.0000   0.0000   0.0000   0.0000   0.0000   0.0000   0.0000   0.0000
     0.0000   0.0000   0.0000   0.0000   0.0000   0.0000   0.0000   0.0000
     0.0000   0.0000   0.0000   0.0000   0.0000   0.0000   0.0000   0.0000

          k = 0.0000-0.5774 0.2850 (100630 PWs)   bands (ev):

   -69.1426 -69.1352 -69.1351 -69.0493 -69.0488 -69.0381 -69.0378 -69.0377
   -69.0374 -69.0360 -69.0359 -69.0354 -69.0170 -69.0169 -69.0166 -69.0165
   -69.0165 -69.0162 -69.0118 -69.0118 -69.0115 -69.0051 -69.0051 -69.0049
   -69.0048 -69.0048 -69.0045 -69.0045 -69.0045 -69.0042 -69.0023 -69.0022
   -69.0021 -69.0019 -69.0019 -69.0018 -68.6383 -68.6383 -68.6382 -68.6382
   -68.6378 -68.6377 -68.6372 -68.6372 -68.6372 -68.6371 -68.6370 -68.6370
   -68.6370 -68.6370 -68.6369 -68.6369 -68.6367 -68.6365 -68.6358 -68.6357
   -68.6356 -68.6340 -68.6335 -68.6334 -68.6244 -68.6244 -68.6242 -68.6242
   -68.6241 -68.6241 -68.6180 -68.6179 -68.6175 -68.6175 -68.6174 -68.6174
   -35.5046 -35.4329 -35.4328 -35.3334 -35.3330 -35.3031 -35.3028 -35.3023
   -35.2961 -35.2956 -35.2954 -35.2952 -35.2951 -35.2945 -35.2892 -35.2891
   -35.2654 -35.2605 -35.2602 -35.2601 -35.2599 -35.2443 -35.2432 -35.2420
   -35.2311 -35.2296 -35.2293 -35.2279 -35.2262 -35.2255 -35.2250 -35.2249
   -35.2248 -35.2247 -35.2245 -35.2243 -35.2237 -35.2235 -35.2217 -35.2053
   -35.2046 -35.2045 -35.2042 -35.1874 -35.1859 -35.1849 -35.1838 -35.1813
   -35.1742 -35.1729 -35.1727 -35.1724 -35.1700 -35.1692 -35.1691 -35.1689
   -35.1683 -35.1680 -35.1674 -35.1667 -35.1666 -35.1663 -35.1654 -35.1581
   -35.1573 -35.1563 -35.1542 -35.1535 -35.1526 -35.1516 -35.1512 -35.1506
   -35.1061 -35.0951 -35.0950 -35.0662 -35.0578 -35.0502 -35.0498 -35.0457
   -35.0443 -35.0429 -35.0403 -35.0391 -35.0349 -35.0341 -35.0318 -35.0292
   -35.0282 -35.0259 -35.0239 -35.0217 -35.0203 -35.0198 -35.0152 -35.0147
   -35.0144 -35.0142 -35.0118 -35.0113 -35.0108 -35.0099 -35.0093 -35.0082
   -35.0078 -35.0050 -35.0037 -35.0013 -34.8335 -34.8325 -34.8310 -34.8281
   -34.8279 -34.8275 -34.8272 -34.8270 -34.8270 -34.8269 -34.8265 -34.8264
   -34.8259 -34.8255 -34.8247 -34.8244 -34.8243 -34.8239 -34.8239 -34.8225
   -34.8224 -34.8212 -34.8185 -34.8184 -34.8149 -34.8144 -34.8142 -34.8117
   -34.8104 -34.8094 -34.8032 -34.8007 -34.8004 -34.7991 -34.7987 -34.7966
   -34.7681 -34.7673 -34.7661 -34.7646 -34.7643 -34.7640 -34.7632 -34.7631
   -34.7622 -34.7607 -34.7604 -34.7601 -34.7596 -34.7593 -34.7588 -34.7584
   -34.7584 -34.7582 -34.7576 -34.7565 -34.7562 -34.7551 -34.7548 -34.7541
   -34.7532 -34.7531 -34.7522 -34.7502 -34.7484 -34.7482 -34.7480 -34.7477
   -34.7472 -34.7459 -34.7457 -34.7423 -34.7008 -34.6993 -34.6992 -34.6982
   -34.6978 -34.6975 -34.6938 -34.6923 -34.6889 -34.6888 -34.6872 -34.6872
   -34.6854 -34.6846 -34.6839 -34.6833 -34.6828 -34.6822 -34.6792 -34.6770
   -34.6757 -34.6756 -34.6745 -34.6734 -34.6723 -34.6718 -34.6716 -34.6706
   -34.6697 -34.6693 -34.6647 -34.6644 -34.6639 -34.6636 -34.6609 -34.6608
     3.4220   3.6575   3.9333   4.1630   4.1878   4.1936   4.5207   4.6614
     4.7664   4.9543   4.9971   5.0285   5.1121   5.1166   5.1310   5.2307
     5.2593   5.2872   5.3080   5.3483   5.4551   5.4578   5.4606   5.5187
     5.5673   5.5930   5.6007   5.6231   5.6314   5.6444   5.8415   5.8463
     5.8774   5.8787   6.1343   6.1387   8.3213   9.9092  10.0311  10.0375
    10.0531  10.1243  10.1596  10.1679  10.1982  10.2677  10.2766  10.3311
    10.3412  10.3877  10.4037  10.4304  10.4418  10.4532  10.5083  10.5248
    10.7054  10.7198  10.7387  10.7487  10.7728  10.7808  11.0267  11.1229
    11.2051  11.2336  11.2403  11.3082  11.3297  11.5240  11.5258  11.5469
    11.5711  11.6365  11.6752  11.6832  11.7413  11.8517  11.8800  11.9186
    11.9194  11.9280  11.9710  11.9750  11.9888  12.0010  12.0606  12.0676
    12.2632  12.2959  12.3005  12.3035  12.3158  12.3853  12.3927  12.3966
    12.4040  12.4468  12.4478  12.4686  12.4826  12.4830  12.5276  12.5412
    12.5557  12.5750  12.6247  12.6280  12.6356  12.6532  12.7360  12.7475
    12.7734  12.8041  12.8446  12.8549  12.8931  12.9042  12.9870  12.9937
    13.0038  13.0099  13.0228  13.0345  13.0637  13.0862  13.1806  13.1818
    13.2320  13.2345  13.2585  13.2633  13.2656  13.2696  13.2803  13.3198
    13.3633  13.3845  13.4889  13.5088  13.5252  13.5761  13.5950  13.6409
    14.1690  14.5852  14.6068  14.6187  14.6224  14.6287  14.6415  14.6497
    14.6514  14.6589  14.6676  14.6855  14.6952  14.6983  14.7218  14.7330
    14.7384  14.7451  14.7674  14.7776  14.7853  14.8022  14.8051  14.8078
    14.8104  14.8162  14.8227  14.8248  14.8370  14.8397  14.8540  14.8585
    14.8719  14.8813  14.9003  14.9133  14.9442  14.9542  14.9617  14.9673
    15.0326  15.0405  15.0644  15.0929  15.1032  15.1065  15.1139  15.1240
    15.1410  15.1550  15.1718  15.1869  15.1995  15.2051  15.2223  15.2225
    15.2306  15.2356  15.2376  15.2416  15.3143  15.3285  15.3503  15.3675
    15.3692  15.3770  15.3967  15.4028  15.4056  15.4149  15.4287  15.4467
    15.4997  15.5222  15.5685  15.5874  15.5983  15.6136  15.7251  15.7295
    15.7936  15.8138  15.8803  15.8901  15.9030  15.9168  15.9216  15.9221
    15.9331  15.9764  15.9887  16.0380  16.0572  16.0629  16.0694  16.0740
    16.0760  16.0894  16.0956  16.1050  16.1067  16.1254  16.1275  16.1459
    16.1586  16.1766  16.2228  16.2483  16.2653  16.2803  16.2931  16.3029
    16.3299  16.3347  16.3528  16.3710  16.3794  16.3891  16.3924  16.4133
    16.4239  16.4343  16.5398  16.5488  16.5525  16.5572  16.5693  16.5695
    16.5736  16.5933  16.6060  16.6261  16.6605  16.6694  16.6808  16.6813
    16.6852  16.7142  16.7221  16.7306  16.7410  16.7430  16.7588  16.7830
    16.7835  16.7887  16.7960  16.8146  16.8494  16.8836  16.8900  16.9011
    16.9054  16.9080  16.9289  16.9290  16.9492  16.9511  16.9783  16.9827
    16.9956  17.0026  17.0054  17.0105  17.0140  17.0204  17.0204  17.0253
    17.0337  17.0337  17.0370  17.0809  17.0931  17.1120  17.1145  17.1379
    17.1402  17.1462  17.1736  17.1945  17.2045  17.2066  17.2116  17.2205
    17.2280  17.2284  17.2303  17.2371  17.2758  17.2788  17.3059  17.3082
    17.3228  17.3272  17.3365  17.3475  17.3598  17.3610  17.3990  17.4089
    17.4623  17.4650  17.4765  17.4928  17.4986  17.5016  17.5054  17.5072
    17.5218  17.5346  17.6251  17.6299  17.6546  17.6631  17.7240  17.7404
    17.8471  17.8477  17.8708  17.8777  17.8852  17.8869  17.9087  17.9191
    17.9210  17.9286  17.9301  17.9349  17.9636  17.9656  17.9719  17.9874
    18.0032  18.0045  18.0182  18.0208  18.0250  18.0255  18.0300  18.0354
    18.0476  18.0557  18.0628  18.0651  18.0659  18.0719  18.0817  18.0891
    18.0996  18.1276  18.1358  18.1367  18.1540  18.1667  18.1760  18.1764
    18.1918  18.2023  18.2024  18.2051  18.2202  18.2345  18.2354  18.2384
    18.2404  18.2482  18.2513  18.2536  18.2592  18.2615  18.2651  18.2716
    18.3008  18.3025  18.3541  18.3592  18.3624  18.3676  18.3682  18.3733
    18.3821  18.3903  18.4088  18.4120  18.4292  18.4343  18.4805  18.4855
    18.5269  18.5487  18.6666  18.6845  18.7752  18.7843  19.0382  19.0605
    19.1065  19.1147  19.1268  19.1274  19.1356  19.1675  19.1968  19.2030
    19.2871  19.2972  19.3043  19.3084  19.3385  19.3465  19.3615  19.3729
    19.4426  19.4526  19.4659  19.5382  19.6190  19.6268  19.6694  19.7165
    19.7590  19.7849  19.7897  19.7934  19.8278  19.8428  19.8599  19.8678
    19.8694  19.9467  20.0287  20.0364  20.0449  20.0451  20.1401  20.2200
    20.2338  20.2417  20.2680  20.2777  20.2934  20.3082  20.3247  20.3537
    20.3819  20.4370  20.4415  20.4566  20.4991  20.5117  20.5162  20.5232
    20.6231  20.6251  20.7093  20.7155  20.7243  20.7372  20.8048  20.8578
    21.3310  21.3648  21.5788  21.5924  21.7628  21.8521  21.8596  22.1426

     occupation numbers 
     1.0000   1.0000   1.0000   1.0000   1.0000   1.0000   1.0000   1.0000
     1.0000   1.0000   1.0000   1.0000   1.0000   1.0000   1.0000   1.0000
     1.0000   1.0000   1.0000   1.0000   1.0000   1.0000   1.0000   1.0000
     1.0000   1.0000   1.0000   1.0000   1.0000   1.0000   1.0000   1.0000
     1.0000   1.0000   1.0000   1.0000   1.0000   1.0000   1.0000   1.0000
     1.0000   1.0000   1.0000   1.0000   1.0000   1.0000   1.0000   1.0000
     1.0000   1.0000   1.0000   1.0000   1.0000   1.0000   1.0000   1.0000
     1.0000   1.0000   1.0000   1.0000   1.0000   1.0000   1.0000   1.0000
     1.0000   1.0000   1.0000   1.0000   1.0000   1.0000   1.0000   1.0000
     1.0000   1.0000   1.0000   1.0000   1.0000   1.0000   1.0000   1.0000
     1.0000   1.0000   1.0000   1.0000   1.0000   1.0000   1.0000   1.0000
     1.0000   1.0000   1.0000   1.0000   1.0000   1.0000   1.0000   1.0000
     1.0000   1.0000   1.0000   1.0000   1.0000   1.0000   1.0000   1.0000
     1.0000   1.0000   1.0000   1.0000   1.0000   1.0000   1.0000   1.0000
     1.0000   1.0000   1.0000   1.0000   1.0000   1.0000   1.0000   1.0000
     1.0000   1.0000   1.0000   1.0000   1.0000   1.0000   1.0000   1.0000
     1.0000   1.0000   1.0000   1.0000   1.0000   1.0000   1.0000   1.0000
     1.0000   1.0000   1.0000   1.0000   1.0000   1.0000   1.0000   1.0000
     1.0000   1.0000   1.0000   1.0000   1.0000   1.0000   1.0000   1.0000
     1.0000   1.0000   1.0000   1.0000   1.0000   1.0000   1.0000   1.0000
     1.0000   1.0000   1.0000   1.0000   1.0000   1.0000   1.0000   1.0000
     1.0000   1.0000   1.0000   1.0000   1.0000   1.0000   1.0000   1.0000
     1.0000   1.0000   1.0000   1.0000   1.0000   1.0000   1.0000   1.0000
     1.0000   1.0000   1.0000   1.0000   1.0000   1.0000   1.0000   1.0000
     1.0000   1.0000   1.0000   1.0000   1.0000   1.0000   1.0000   1.0000
     1.0000   1.0000   1.0000   1.0000   1.0000   1.0000   1.0000   1.0000
     1.0000   1.0000   1.0000   1.0000   1.0000   1.0000   1.0000   1.0000
     1.0000   1.0000   1.0000   1.0000   1.0000   1.0000   1.0000   1.0000
     1.0000   1.0000   1.0000   1.0000   1.0000   1.0000   1.0000   1.0000
     1.0000   1.0000   1.0000   1.0000   1.0000   1.0000   1.0000   1.0000
     1.0000   1.0000   1.0000   1.0000   1.0000   1.0000   1.0000   1.0000
     1.0000   1.0000   1.0000   1.0000   1.0000   1.0000   1.0000   1.0000
     1.0000   1.0000   1.0000   1.0000   1.0000   1.0000   1.0000   1.0000
     1.0000   1.0000   1.0000   1.0000   1.0000   1.0000   1.0000   1.0000
     1.0000   1.0000   1.0000   1.0000   1.0000   1.0000   1.0000   1.0000
     1.0000   1.0000   1.0000   1.0000   1.0000   1.0000   1.0000   1.0000
     1.0000   1.0000   1.0000   1.0000   1.0000   1.0000   1.0000   1.0000
     1.0000   1.0000   1.0000   1.0000   1.0000   1.0000   1.0000   1.0000
     1.0000   1.0000   1.0000   1.0000   1.0000   1.0000   1.0000   1.0000
     1.0000   1.0000   1.0000   1.0000   1.0000   1.0000   1.0000   1.0000
     1.0000   1.0000   1.0000   1.0000   1.0000   1.0000   1.0000   1.0000
     1.0000   1.0000   1.0000   1.0000   1.0000   1.0000   1.0000   1.0000
     1.0000   1.0000   1.0000   1.0000   1.0000   1.0000   1.0000   1.0000
     1.0000   1.0000   1.0000   1.0000   1.0000   1.0000   1.0000   1.0000
     1.0000   1.0000   1.0000   1.0000   1.0000   1.0000   1.0000   1.0000
     1.0000   1.0000   1.0000   1.0000   1.0000   1.0000   1.0000   1.0000
     1.0000   1.0000   1.0000   1.0000   1.0000   1.0000   1.0000   1.0000
     1.0000   1.0000   1.0000   1.0000   1.0000   1.0000   1.0000   1.0000
     1.0000   1.0000   1.0000   1.0000   1.0000   1.0000   1.0000   1.0000
     1.0000   1.0000   1.0000   1.0000   1.0000   1.0000   1.0000   1.0000
     1.0000   1.0000   1.0000   1.0000   1.0000   1.0000   1.0000   1.0000
     1.0000   1.0000   1.0000   1.0000   1.0000   1.0000   1.0000   1.0000
     1.0000   1.0000   1.0000   1.0000   1.0000   1.0000   1.0000   1.0000
     1.0000   1.0000   1.0000   1.0000   1.0000   1.0000   1.0000   1.0000
     1.0000   1.0000   1.0000   1.0000   1.0000   1.0000   1.0000   1.0000
     1.0000   1.0000   1.0000   1.0000   1.0000   1.0000   1.0000   1.0000
     1.0000   1.0000   1.0000   1.0000   1.0000   1.0000   1.0000   1.0000
     1.0000   1.0000   1.0000   1.0000   1.0000   1.0000   1.0000   1.0000
     1.0000   1.0000   1.0000   1.0000   1.0000   1.0000   1.0000   1.0000
     1.0000   1.0000   1.0000   1.0000   1.0000   1.0000   1.0000   1.0000
     1.0000   1.0000   1.0000   1.0000   1.0000   1.0000   1.0000   1.0000
     1.0000   1.0000   1.0000   1.0000   1.0000   1.0000   1.0000   1.0000
     1.0000   1.0000   1.0000   1.0000   1.0000   1.0000   1.0000   1.0000
     1.0000   1.0000   1.0000   1.0000   1.0000   1.0000   1.0000   1.0000
     1.0000   1.0000   1.0000   1.0000   1.0000   1.0000   1.0000   1.0000
     1.0000   1.0000   1.0000   1.0000   1.0000   1.0000   1.0000   1.0000
     1.0000   1.0000   1.0000   1.0000   1.0000   1.0000   1.0000   1.0000
     1.0000   1.0000   1.0000   1.0000   1.0000   1.0000   1.0000   1.0000
     1.0000   1.0000   1.0000   1.0000   1.0000   1.0000   1.0000   1.0000
     1.0000   1.0000   0.9998   0.9997   0.9997   0.9997   0.9996   0.9996
     0.9995   0.9993   0.9991   0.9988   0.9978   0.9975   0.9970   0.9970
     0.9968   0.9950   0.9944   0.9936   0.9926   0.9924   0.9905   0.9867
     0.9866   0.9857   0.9842   0.9800   0.9694   0.9549   0.9517   0.9456
     0.9431   0.9416   0.9277   0.9277   0.9121   0.9105   0.8855   0.8810
     0.8670   0.8591   0.8558   0.8498   0.8455   0.8375   0.8374   0.8310
     0.8199   0.8198   0.8153   0.7483   0.7277   0.6941   0.6896   0.6456
     0.6411   0.6293   0.5745   0.5315   0.5108   0.5065   0.4960   0.4777
     0.4622   0.4613   0.4574   0.4433   0.3657   0.3598   0.3085   0.3044
     0.2784   0.2707   0.2550   0.2370   0.2177   0.2159   0.1626   0.1502
     0.0946   0.0922   0.0828   0.0706   0.0666   0.0646   0.0622   0.0610
     0.0524   0.0457   0.0154   0.0145   0.0104   0.0092   0.0038   0.0029
     0.0005   0.0005   0.0003   0.0003   0.0002   0.0002   0.0001   0.0001
     0.0001   0.0001   0.0001   0.0001   0.0000   0.0000   0.0000   0.0000
     0.0000   0.0000   0.0000   0.0000   0.0000   0.0000   0.0000   0.0000
     0.0000   0.0000   0.0000   0.0000   0.0000   0.0000   0.0000   0.0000
     0.0000   0.0000   0.0000   0.0000   0.0000   0.0000   0.0000   0.0000
     0.0000   0.0000   0.0000   0.0000   0.0000   0.0000   0.0000   0.0000
     0.0000   0.0000   0.0000   0.0000   0.0000   0.0000   0.0000   0.0000
     0.0000   0.0000   0.0000   0.0000   0.0000   0.0000   0.0000   0.0000
     0.0000   0.0000   0.0000   0.0000   0.0000   0.0000   0.0000   0.0000
     0.0000   0.0000   0.0000   0.0000   0.0000   0.0000   0.0000   0.0000
     0.0000   0.0000   0.0000   0.0000   0.0000   0.0000   0.0000   0.0000
     0.0000   0.0000   0.0000   0.0000   0.0000   0.0000   0.0000   0.0000
     0.0000   0.0000   0.0000   0.0000   0.0000   0.0000   0.0000   0.0000
     0.0000   0.0000   0.0000   0.0000   0.0000   0.0000   0.0000   0.0000
     0.0000   0.0000   0.0000   0.0000   0.0000   0.0000   0.0000   0.0000
     0.0000   0.0000   0.0000   0.0000   0.0000   0.0000   0.0000   0.0000
     0.0000   0.0000   0.0000   0.0000   0.0000   0.0000   0.0000   0.0000
     0.0000   0.0000   0.0000   0.0000   0.0000   0.0000   0.0000   0.0000
     0.0000   0.0000   0.0000   0.0000   0.0000   0.0000   0.0000   0.0000

          k = 0.0000-0.5774-0.5700 (100572 PWs)   bands (ev):

   -69.1426 -69.1352 -69.1351 -69.0493 -69.0488 -69.0381 -69.0378 -69.0377
   -69.0374 -69.0360 -69.0359 -69.0354 -69.0170 -69.0169 -69.0166 -69.0165
   -69.0165 -69.0162 -69.0118 -69.0118 -69.0115 -69.0051 -69.0051 -69.0048
   -69.0048 -69.0048 -69.0045 -69.0045 -69.0045 -69.0042 -69.0023 -69.0022
   -69.0021 -69.0019 -69.0019 -69.0018 -68.6383 -68.6383 -68.6382 -68.6381
   -68.6378 -68.6377 -68.6372 -68.6372 -68.6372 -68.6371 -68.6370 -68.6370
   -68.6370 -68.6370 -68.6369 -68.6369 -68.6367 -68.6365 -68.6358 -68.6357
   -68.6356 -68.6340 -68.6335 -68.6334 -68.6244 -68.6244 -68.6242 -68.6242
   -68.6241 -68.6241 -68.6180 -68.6179 -68.6175 -68.6175 -68.6174 -68.6174
   -35.5046 -35.4329 -35.4328 -35.3334 -35.3330 -35.3031 -35.3028 -35.3023
   -35.2959 -35.2957 -35.2956 -35.2952 -35.2951 -35.2944 -35.2892 -35.2891
   -35.2654 -35.2606 -35.2602 -35.2601 -35.2599 -35.2444 -35.2432 -35.2421
   -35.2313 -35.2296 -35.2292 -35.2273 -35.2261 -35.2255 -35.2252 -35.2250
   -35.2247 -35.2247 -35.2245 -35.2244 -35.2239 -35.2237 -35.2215 -35.2053
   -35.2046 -35.2044 -35.2043 -35.1874 -35.1859 -35.1849 -35.1838 -35.1813
   -35.1744 -35.1728 -35.1726 -35.1717 -35.1698 -35.1694 -35.1694 -35.1691
   -35.1682 -35.1678 -35.1673 -35.1668 -35.1668 -35.1666 -35.1652 -35.1580
   -35.1572 -35.1562 -35.1545 -35.1537 -35.1528 -35.1514 -35.1510 -35.1505
   -35.1062 -35.0952 -35.0951 -35.0663 -35.0573 -35.0507 -35.0503 -35.0462
   -35.0451 -35.0411 -35.0404 -35.0401 -35.0337 -35.0330 -35.0322 -35.0290
   -35.0280 -35.0261 -35.0251 -35.0218 -35.0214 -35.0201 -35.0144 -35.0134
   -35.0132 -35.0129 -35.0112 -35.0100 -35.0094 -35.0092 -35.0089 -35.0079
   -35.0072 -35.0066 -35.0062 -35.0048 -34.8349 -34.8335 -34.8315 -34.8279
   -34.8274 -34.8273 -34.8271 -34.8270 -34.8267 -34.8267 -34.8266 -34.8262
   -34.8258 -34.8251 -34.8250 -34.8244 -34.8241 -34.8228 -34.8225 -34.8221
   -34.8215 -34.8212 -34.8197 -34.8190 -34.8139 -34.8133 -34.8129 -34.8128
   -34.8118 -34.8112 -34.8022 -34.8004 -34.8001 -34.7995 -34.7991 -34.7979
   -34.7664 -34.7659 -34.7653 -34.7639 -34.7629 -34.7623 -34.7620 -34.7618
   -34.7616 -34.7616 -34.7612 -34.7612 -34.7610 -34.7598 -34.7596 -34.7594
   -34.7592 -34.7588 -34.7582 -34.7563 -34.7560 -34.7547 -34.7546 -34.7545
   -34.7545 -34.7540 -34.7538 -34.7500 -34.7489 -34.7483 -34.7481 -34.7474
   -34.7467 -34.7453 -34.7450 -34.7415 -34.7009 -34.6993 -34.6989 -34.6984
   -34.6977 -34.6976 -34.6938 -34.6923 -34.6889 -34.6889 -34.6872 -34.6871
   -34.6853 -34.6844 -34.6842 -34.6836 -34.6827 -34.6821 -34.6792 -34.6770
   -34.6757 -34.6756 -34.6745 -34.6734 -34.6722 -34.6718 -34.6717 -34.6705
   -34.6698 -34.6692 -34.6647 -34.6644 -34.6638 -34.6635 -34.6608 -34.6608
     3.5036   3.8355   3.8574   3.8691   4.1693   4.3396   4.3685   4.3856
     4.8222   5.0370   5.0814   5.0995   5.2414   5.2459   5.2579   5.2597
     5.2607   5.3137   5.3197   5.3211   5.3620   5.3784   5.4512   5.5294
     5.5567   5.5740   5.5750   5.5845   5.6886   5.6926   5.6997   5.7034
     5.9533   5.9542   6.1860   6.1896   8.2338   9.7983   9.9683   9.9718
    10.0183  10.0764  10.0876  10.2184  10.2288  10.2423  10.2470  10.2610
    10.2693  10.2776  10.2787  10.2881  10.5233  10.5452  10.5489  10.5587
    10.5740  10.5791  10.5855  10.5994  10.6912  10.6997  11.2052  11.2446
    11.2508  11.2630  11.2937  11.3008  11.3350  11.6841  11.6842  11.7750
    11.7847  11.7990  11.7994  11.8664  11.9897  11.9992  12.0243  12.0369
    12.0373  12.0405  12.0428  12.0485  12.0588  12.0682  12.0765  12.0849
    12.1559  12.1651  12.2251  12.2266  12.3417  12.3428  12.5166  12.5322
    12.5687  12.5747  12.5871  12.5921  12.6070  12.6302  12.6337  12.6381
    12.6389  12.6414  12.6424  12.6497  12.6587  12.6607  12.6649  12.6770
    12.6776  12.6819  12.8282  12.8366  12.8423  12.8426  12.8439  12.8484
    12.8668  12.8760  12.8822  12.8827  12.9892  12.9976  13.0668  13.0717
    13.0725  13.0738  13.2115  13.2135  13.2273  13.2332  13.2483  13.2655
    13.3735  13.3913  13.3916  13.3959  13.4378  13.4383  13.4491  13.4681
    14.2155  14.6112  14.6267  14.6384  14.6525  14.6543  14.6640  14.6656
    14.6770  14.6959  14.7061  14.7068  14.7155  14.7166  14.7168  14.7208
    14.7281  14.7338  14.7347  14.7445  14.7904  14.7921  14.7936  14.7961
    14.8083  14.8126  14.8420  14.8562  14.8595  14.8702  14.8717  14.8761
    14.8922  14.8953  14.9008  14.9178  14.9182  14.9318  15.0208  15.0343
    15.0374  15.0424  15.0999  15.1005  15.1054  15.1088  15.1108  15.1110
    15.1207  15.1320  15.1417  15.1553  15.1561  15.1567  15.1749  15.1781
    15.2191  15.2198  15.2421  15.2555  15.2666  15.2981  15.3001  15.3081
    15.3296  15.3357  15.3599  15.3601  15.3716  15.3845  15.3921  15.4019
    15.5285  15.5435  15.5455  15.5524  15.7345  15.7619  15.7676  15.7697
    15.8040  15.8232  15.8354  15.8392  15.8459  15.8534  15.8555  15.8695
    15.9334  15.9820  15.9941  16.0620  16.0641  16.0706  16.0904  16.0983
    16.1441  16.1520  16.1761  16.1843  16.1853  16.2066  16.2080  16.2086
    16.2128  16.2199  16.2426  16.2446  16.3404  16.3414  16.3473  16.3537
    16.3563  16.3736  16.3864  16.4017  16.4085  16.4159  16.4204  16.4240
    16.4282  16.4287  16.5443  16.5465  16.5681  16.5693  16.5702  16.5883
    16.5921  16.5928  16.5993  16.6079  16.6562  16.6562  16.6706  16.6719
    16.6852  16.6982  16.7012  16.7059  16.7095  16.7136  16.7467  16.7565
    16.7762  16.7912  16.8028  16.8044  16.8441  16.8577  16.8718  16.8769
    16.8837  16.9176  16.9276  16.9386  16.9401  16.9424  16.9492  16.9527
    16.9567  16.9586  16.9593  16.9692  16.9984  17.0005  17.0101  17.0104
    17.0192  17.0220  17.0390  17.0419  17.0573  17.0879  17.1070  17.1243
    17.1463  17.1565  17.1584  17.1593  17.1602  17.1714  17.1744  17.1886
    17.1987  17.2009  17.2449  17.2473  17.2482  17.2585  17.2618  17.2636
    17.3297  17.3351  17.3504  17.3619  17.3635  17.3751  17.3751  17.3846
    17.3930  17.4080  17.4733  17.4738  17.4957  17.4968  17.5160  17.5214
    17.5641  17.5822  17.5858  17.5916  17.6744  17.6962  17.7051  17.7072
    17.8551  17.8563  17.8756  17.8766  17.8891  17.8920  17.9071  17.9073
    17.9213  17.9291  17.9486  17.9502  17.9522  17.9831  18.0044  18.0065
    18.0083  18.0143  18.0196  18.0228  18.0248  18.0260  18.0567  18.0578
    18.0634  18.0649  18.0742  18.0763  18.0775  18.0797  18.0831  18.0846
    18.0890  18.0949  18.1016  18.1433  18.1551  18.1737  18.2048  18.2243
    18.2313  18.2331  18.2351  18.2376  18.2397  18.2436  18.2556  18.2645
    18.2650  18.2655  18.2667  18.2700  18.2715  18.2749  18.2782  18.2819
    18.3359  18.3391  18.3394  18.3529  18.3965  18.3986  18.4029  18.4036
    18.4275  18.4341  18.4371  18.4383  18.4392  18.4437  18.4976  18.5013
    18.5432  18.5461  18.5614  18.5662  18.7923  18.8254  18.8326  18.8414
    19.0290  19.0375  19.0378  19.0456  19.1116  19.1186  19.2927  19.3106
    19.3198  19.3521  19.3642  19.3989  19.4093  19.4201  19.4327  19.4445
    19.4466  19.4534  19.6225  19.6313  19.6426  19.6426  19.6433  19.6963
    19.7130  19.7298  19.8074  19.8191  19.8710  19.8805  19.9341  19.9374
    19.9383  19.9413  19.9661  19.9691  20.0115  20.0282  20.0328  20.0476
    20.0483  20.0555  20.1525  20.1540  20.1643  20.1936  20.2064  20.2154
    20.2280  20.2369  20.3275  20.3862  20.3994  20.4094  20.5983  20.6209
    20.6232  20.6450  20.7543  20.7717  20.7745  20.7805  20.8500  20.8721
    21.2082  21.2493  21.4339  21.4589  21.8264  21.8488  22.1742  22.3472

     occupation numbers 
     1.0000   1.0000   1.0000   1.0000   1.0000   1.0000   1.0000   1.0000
     1.0000   1.0000   1.0000   1.0000   1.0000   1.0000   1.0000   1.0000
     1.0000   1.0000   1.0000   1.0000   1.0000   1.0000   1.0000   1.0000
     1.0000   1.0000   1.0000   1.0000   1.0000   1.0000   1.0000   1.0000
     1.0000   1.0000   1.0000   1.0000   1.0000   1.0000   1.0000   1.0000
     1.0000   1.0000   1.0000   1.0000   1.0000   1.0000   1.0000   1.0000
     1.0000   1.0000   1.0000   1.0000   1.0000   1.0000   1.0000   1.0000
     1.0000   1.0000   1.0000   1.0000   1.0000   1.0000   1.0000   1.0000
     1.0000   1.0000   1.0000   1.0000   1.0000   1.0000   1.0000   1.0000
     1.0000   1.0000   1.0000   1.0000   1.0000   1.0000   1.0000   1.0000
     1.0000   1.0000   1.0000   1.0000   1.0000   1.0000   1.0000   1.0000
     1.0000   1.0000   1.0000   1.0000   1.0000   1.0000   1.0000   1.0000
     1.0000   1.0000   1.0000   1.0000   1.0000   1.0000   1.0000   1.0000
     1.0000   1.0000   1.0000   1.0000   1.0000   1.0000   1.0000   1.0000
     1.0000   1.0000   1.0000   1.0000   1.0000   1.0000   1.0000   1.0000
     1.0000   1.0000   1.0000   1.0000   1.0000   1.0000   1.0000   1.0000
     1.0000   1.0000   1.0000   1.0000   1.0000   1.0000   1.0000   1.0000
     1.0000   1.0000   1.0000   1.0000   1.0000   1.0000   1.0000   1.0000
     1.0000   1.0000   1.0000   1.0000   1.0000   1.0000   1.0000   1.0000
     1.0000   1.0000   1.0000   1.0000   1.0000   1.0000   1.0000   1.0000
     1.0000   1.0000   1.0000   1.0000   1.0000   1.0000   1.0000   1.0000
     1.0000   1.0000   1.0000   1.0000   1.0000   1.0000   1.0000   1.0000
     1.0000   1.0000   1.0000   1.0000   1.0000   1.0000   1.0000   1.0000
     1.0000   1.0000   1.0000   1.0000   1.0000   1.0000   1.0000   1.0000
     1.0000   1.0000   1.0000   1.0000   1.0000   1.0000   1.0000   1.0000
     1.0000   1.0000   1.0000   1.0000   1.0000   1.0000   1.0000   1.0000
     1.0000   1.0000   1.0000   1.0000   1.0000   1.0000   1.0000   1.0000
     1.0000   1.0000   1.0000   1.0000   1.0000   1.0000   1.0000   1.0000
     1.0000   1.0000   1.0000   1.0000   1.0000   1.0000   1.0000   1.0000
     1.0000   1.0000   1.0000   1.0000   1.0000   1.0000   1.0000   1.0000
     1.0000   1.0000   1.0000   1.0000   1.0000   1.0000   1.0000   1.0000
     1.0000   1.0000   1.0000   1.0000   1.0000   1.0000   1.0000   1.0000
     1.0000   1.0000   1.0000   1.0000   1.0000   1.0000   1.0000   1.0000
     1.0000   1.0000   1.0000   1.0000   1.0000   1.0000   1.0000   1.0000
     1.0000   1.0000   1.0000   1.0000   1.0000   1.0000   1.0000   1.0000
     1.0000   1.0000   1.0000   1.0000   1.0000   1.0000   1.0000   1.0000
     1.0000   1.0000   1.0000   1.0000   1.0000   1.0000   1.0000   1.0000
     1.0000   1.0000   1.0000   1.0000   1.0000   1.0000   1.0000   1.0000
     1.0000   1.0000   1.0000   1.0000   1.0000   1.0000   1.0000   1.0000
     1.0000   1.0000   1.0000   1.0000   1.0000   1.0000   1.0000   1.0000
     1.0000   1.0000   1.0000   1.0000   1.0000   1.0000   1.0000   1.0000
     1.0000   1.0000   1.0000   1.0000   1.0000   1.0000   1.0000   1.0000
     1.0000   1.0000   1.0000   1.0000   1.0000   1.0000   1.0000   1.0000
     1.0000   1.0000   1.0000   1.0000   1.0000   1.0000   1.0000   1.0000
     1.0000   1.0000   1.0000   1.0000   1.0000   1.0000   1.0000   1.0000
     1.0000   1.0000   1.0000   1.0000   1.0000   1.0000   1.0000   1.0000
     1.0000   1.0000   1.0000   1.0000   1.0000   1.0000   1.0000   1.0000
     1.0000   1.0000   1.0000   1.0000   1.0000   1.0000   1.0000   1.0000
     1.0000   1.0000   1.0000   1.0000   1.0000   1.0000   1.0000   1.0000
     1.0000   1.0000   1.0000   1.0000   1.0000   1.0000   1.0000   1.0000
     1.0000   1.0000   1.0000   1.0000   1.0000   1.0000   1.0000   1.0000
     1.0000   1.0000   1.0000   1.0000   1.0000   1.0000   1.0000   1.0000
     1.0000   1.0000   1.0000   1.0000   1.0000   1.0000   1.0000   1.0000
     1.0000   1.0000   1.0000   1.0000   1.0000   1.0000   1.0000   1.0000
     1.0000   1.0000   1.0000   1.0000   1.0000   1.0000   1.0000   1.0000
     1.0000   1.0000   1.0000   1.0000   1.0000   1.0000   1.0000   1.0000
     1.0000   1.0000   1.0000   1.0000   1.0000   1.0000   1.0000   1.0000
     1.0000   1.0000   1.0000   1.0000   1.0000   1.0000   1.0000   1.0000
     1.0000   1.0000   1.0000   1.0000   1.0000   1.0000   1.0000   1.0000
     1.0000   1.0000   1.0000   1.0000   1.0000   1.0000   1.0000   1.0000
     1.0000   1.0000   1.0000   1.0000   1.0000   1.0000   1.0000   1.0000
     1.0000   1.0000   1.0000   1.0000   1.0000   1.0000   1.0000   1.0000
     1.0000   1.0000   1.0000   1.0000   1.0000   1.0000   1.0000   1.0000
     1.0000   1.0000   1.0000   1.0000   1.0000   1.0000   1.0000   1.0000
     1.0000   1.0000   1.0000   1.0000   1.0000   1.0000   1.0000   1.0000
     1.0000   1.0000   1.0000   1.0000   1.0000   1.0000   1.0000   1.0000
     1.0000   1.0000   1.0000   1.0000   1.0000   1.0000   1.0000   1.0000
     1.0000   1.0000   1.0000   1.0000   1.0000   1.0000   1.0000   1.0000
     1.0000   1.0000   1.0000   1.0000   1.0000   1.0000   1.0000   1.0000
     1.0000   1.0000   0.9997   0.9997   0.9996   0.9996   0.9996   0.9994
     0.9993   0.9993   0.9992   0.9991   0.9980   0.9980   0.9975   0.9974
     0.9968   0.9961   0.9959   0.9956   0.9953   0.9950   0.9919   0.9907
     0.9879   0.9852   0.9828   0.9824   0.9713   0.9663   0.9605   0.9582
     0.9549   0.9355   0.9287   0.9206   0.9194   0.9176   0.9121   0.9092
     0.9058   0.9040   0.9034   0.8943   0.8640   0.8616   0.8502   0.8498
     0.8389   0.8353   0.8125   0.8085   0.7858   0.7367   0.7033   0.6715
     0.6291   0.6090   0.6051   0.6033   0.6015   0.5790   0.5728   0.5437
     0.5227   0.5183   0.4274   0.4226   0.4208   0.4000   0.3932   0.3897
     0.2664   0.2573   0.2324   0.2145   0.2120   0.1950   0.1949   0.1817
     0.1704   0.1513   0.0854   0.0849   0.0686   0.0678   0.0557   0.0526
     0.0327   0.0264   0.0253   0.0236   0.0079   0.0057   0.0050   0.0049
     0.0004   0.0004   0.0003   0.0003   0.0002   0.0002   0.0001   0.0001
     0.0001   0.0001   0.0001   0.0001   0.0001   0.0000   0.0000   0.0000
     0.0000   0.0000   0.0000   0.0000   0.0000   0.0000   0.0000   0.0000
     0.0000   0.0000   0.0000   0.0000   0.0000   0.0000   0.0000   0.0000
     0.0000   0.0000   0.0000   0.0000   0.0000   0.0000   0.0000   0.0000
     0.0000   0.0000   0.0000   0.0000   0.0000   0.0000   0.0000   0.0000
     0.0000   0.0000   0.0000   0.0000   0.0000   0.0000   0.0000   0.0000
     0.0000   0.0000   0.0000   0.0000   0.0000   0.0000   0.0000   0.0000
     0.0000   0.0000   0.0000   0.0000   0.0000   0.0000   0.0000   0.0000
     0.0000   0.0000   0.0000   0.0000   0.0000   0.0000   0.0000   0.0000
     0.0000   0.0000   0.0000   0.0000   0.0000   0.0000   0.0000   0.0000
     0.0000   0.0000   0.0000   0.0000   0.0000   0.0000   0.0000   0.0000
     0.0000   0.0000   0.0000   0.0000   0.0000   0.0000   0.0000   0.0000
     0.0000   0.0000   0.0000   0.0000   0.0000   0.0000   0.0000   0.0000
     0.0000   0.0000   0.0000   0.0000   0.0000   0.0000   0.0000   0.0000
     0.0000   0.0000   0.0000   0.0000   0.0000   0.0000   0.0000   0.0000
     0.0000   0.0000   0.0000   0.0000   0.0000   0.0000   0.0000   0.0000
     0.0000   0.0000   0.0000   0.0000   0.0000   0.0000   0.0000   0.0000
     0.0000   0.0000   0.0000   0.0000   0.0000   0.0000   0.0000   0.0000

          k = 0.2500 0.4330 0.0000 (100652 PWs)   bands (ev):

   -69.1426 -69.1352 -69.1351 -69.0493 -69.0488 -69.0381 -69.0378 -69.0377
   -69.0374 -69.0360 -69.0359 -69.0355 -69.0171 -69.0169 -69.0166 -69.0166
   -69.0165 -69.0162 -69.0118 -69.0117 -69.0115 -69.0051 -69.0050 -69.0049
   -69.0048 -69.0048 -69.0045 -69.0045 -69.0045 -69.0042 -69.0023 -69.0022
   -69.0021 -69.0020 -69.0019 -69.0018 -68.6383 -68.6383 -68.6382 -68.6382
   -68.6378 -68.6377 -68.6372 -68.6372 -68.6372 -68.6371 -68.6371 -68.6370
   -68.6370 -68.6370 -68.6369 -68.6369 -68.6367 -68.6365 -68.6358 -68.6357
   -68.6356 -68.6340 -68.6335 -68.6334 -68.6244 -68.6244 -68.6242 -68.6242
   -68.6241 -68.6241 -68.6180 -68.6179 -68.6175 -68.6175 -68.6174 -68.6174
   -35.5047 -35.4329 -35.4328 -35.3334 -35.3329 -35.3032 -35.3028 -35.3023
   -35.2963 -35.2957 -35.2953 -35.2952 -35.2950 -35.2945 -35.2892 -35.2891
   -35.2654 -35.2604 -35.2603 -35.2601 -35.2600 -35.2444 -35.2430 -35.2421
   -35.2308 -35.2299 -35.2291 -35.2281 -35.2271 -35.2253 -35.2251 -35.2250
   -35.2249 -35.2245 -35.2240 -35.2236 -35.2234 -35.2233 -35.2226 -35.2052
   -35.2047 -35.2045 -35.2042 -35.1873 -35.1860 -35.1849 -35.1837 -35.1813
   -35.1737 -35.1731 -35.1730 -35.1726 -35.1709 -35.1690 -35.1688 -35.1687
   -35.1684 -35.1682 -35.1667 -35.1664 -35.1663 -35.1662 -35.1661 -35.1582
   -35.1573 -35.1564 -35.1538 -35.1531 -35.1524 -35.1519 -35.1513 -35.1509
   -35.1060 -35.0950 -35.0949 -35.0660 -35.0583 -35.0496 -35.0492 -35.0449
   -35.0442 -35.0435 -35.0397 -35.0390 -35.0372 -35.0345 -35.0315 -35.0297
   -35.0281 -35.0260 -35.0220 -35.0214 -35.0196 -35.0175 -35.0172 -35.0170
   -35.0154 -35.0151 -35.0140 -35.0124 -35.0120 -35.0103 -35.0086 -35.0079
   -35.0066 -35.0043 -35.0016 -35.0000 -34.8302 -34.8300 -34.8297 -34.8297
   -34.8296 -34.8296 -34.8274 -34.8272 -34.8269 -34.8268 -34.8267 -34.8264
   -34.8262 -34.8259 -34.8258 -34.8254 -34.8246 -34.8240 -34.8238 -34.8224
   -34.8217 -34.8216 -34.8181 -34.8178 -34.8156 -34.8149 -34.8147 -34.8111
   -34.8093 -34.8084 -34.8040 -34.8009 -34.8006 -34.7987 -34.7984 -34.7957
   -34.7697 -34.7685 -34.7673 -34.7650 -34.7646 -34.7641 -34.7637 -34.7624
   -34.7620 -34.7617 -34.7613 -34.7609 -34.7596 -34.7595 -34.7578 -34.7574
   -34.7573 -34.7573 -34.7569 -34.7566 -34.7564 -34.7552 -34.7540 -34.7534
   -34.7519 -34.7517 -34.7505 -34.7503 -34.7497 -34.7491 -34.7478 -34.7475
   -34.7467 -34.7464 -34.7460 -34.7438 -34.7011 -34.6996 -34.6982 -34.6981
   -34.6977 -34.6974 -34.6957 -34.6905 -34.6897 -34.6892 -34.6871 -34.6865
   -34.6860 -34.6847 -34.6840 -34.6840 -34.6820 -34.6817 -34.6797 -34.6770
   -34.6761 -34.6751 -34.6745 -34.6734 -34.6726 -34.6721 -34.6706 -34.6702
   -34.6702 -34.6696 -34.6647 -34.6643 -34.6639 -34.6636 -34.6609 -34.6608
     3.3578   3.6567   3.7977   4.2054   4.5107   4.5142   4.6026   4.6664
     4.7136   4.7589   4.7620   4.8978   4.9835   5.0623   5.1657   5.1778
     5.2718   5.3478   5.3640   5.3706   5.3752   5.5094   5.5224   5.5727
     5.5738   5.5778   5.5921   5.6005   5.6530   5.6530   5.8705   5.8726
     5.8868   5.8893   6.0374   6.0546   8.4209   9.9347   9.9466  10.0890
    10.1398  10.1565  10.1853  10.2747  10.2881  10.3184  10.3275  10.3580
    10.3676  10.4584  10.4988  10.6698  10.6844  10.7051  10.7114  10.7332
    10.7397  10.7400  10.7414  10.8011  10.8080  10.8359  10.8944  10.9719
    10.9736  10.9766  10.9842  11.1070  11.1243  11.2314  11.4500  11.5116
    11.5266  11.5460  11.5544  11.5769  11.5821  11.6101  11.7749  11.8052
    11.8076  11.9812  12.0009  12.0026  12.0032  12.0102  12.0125  12.0785
    12.0877  12.0944  12.1219  12.2670  12.2731  12.3136  12.3175  12.3706
    12.3723  12.3837  12.3915  12.4220  12.4291  12.5831  12.6112  12.6124
    12.6147  12.6181  12.6745  12.7090  12.7737  12.7792  12.7865  12.7960
    12.8515  12.8531  12.8891  12.9050  12.9134  12.9191  12.9547  12.9551
    12.9644  12.9660  12.9675  12.9934  13.0561  13.0567  13.1815  13.1852
    13.1897  13.1958  13.2656  13.3498  13.3523  13.3586  13.3635  13.4313
    13.4697  13.4781  13.4946  13.5462  13.6864  13.7005  14.0683  14.0754
    14.1847  14.3525  14.3773  14.5298  14.5468  14.5654  14.6201  14.6514
    14.6533  14.6650  14.6687  14.6734  14.6797  14.6834  14.7088  14.7286
    14.7517  14.7723  14.7764  14.7889  14.8000  14.8033  14.8081  14.8088
    14.8217  14.8224  14.8261  14.8357  14.8429  14.8562  14.8564  14.8614
    14.8667  14.9030  14.9148  14.9265  14.9267  14.9395  14.9587  14.9599
    14.9725  14.9804  15.0208  15.0799  15.1077  15.1173  15.1198  15.1218
    15.1951  15.1960  15.1976  15.2155  15.2183  15.2286  15.2301  15.2303
    15.2379  15.2691  15.2931  15.3132  15.3645  15.3833  15.3836  15.3893
    15.3953  15.3957  15.4107  15.4278  15.4443  15.4532  15.4568  15.5141
    15.5169  15.5208  15.5258  15.5551  15.5776  15.5858  15.5932  15.5988
    15.8816  15.9071  15.9263  15.9344  15.9508  15.9611  15.9709  15.9745
    15.9938  15.9993  16.0082  16.0175  16.0221  16.0223  16.0247  16.0252
    16.0278  16.0457  16.0502  16.0564  16.0611  16.0635  16.0655  16.0780
    16.0842  16.0850  16.1010  16.1048  16.1553  16.1737  16.1889  16.2089
    16.2689  16.2987  16.3367  16.3628  16.3677  16.3779  16.4229  16.4251
    16.4897  16.4912  16.5244  16.5429  16.5431  16.5522  16.5560  16.5614
    16.6039  16.6134  16.6192  16.6515  16.6628  16.6641  16.6723  16.6761
    16.6924  16.7214  16.7322  16.7387  16.7642  16.7656  16.7682  16.7814
    16.7817  16.7892  16.8015  16.8287  16.8497  16.8548  16.8564  16.8800
    16.8866  16.9137  16.9446  16.9527  16.9563  16.9780  16.9940  17.0025
    17.0285  17.0287  17.0330  17.0444  17.0463  17.0492  17.0521  17.0558
    17.0602  17.0630  17.0664  17.0829  17.0950  17.1330  17.1580  17.1725
    17.1766  17.1784  17.1912  17.2122  17.2134  17.2157  17.2159  17.2412
    17.2463  17.2493  17.2505  17.2808  17.2850  17.2902  17.3138  17.3177
    17.3237  17.3354  17.3577  17.3693  17.3855  17.3881  17.4499  17.4559
    17.4632  17.4656  17.4757  17.4838  17.5126  17.5214  17.5215  17.5266
    17.5384  17.5385  17.5513  17.5595  17.6224  17.7274  17.8226  17.8324
    17.8326  17.8372  17.8394  17.8429  17.8467  17.8537  17.8623  17.8855
    17.9053  17.9137  17.9147  17.9291  17.9362  17.9369  17.9402  17.9455
    17.9788  17.9949  17.9998  18.0067  18.0092  18.0399  18.0431  18.0440
    18.0561  18.0572  18.0619  18.0776  18.0946  18.1025  18.1084  18.1143
    18.1182  18.1256  18.1290  18.1351  18.1391  18.1414  18.1577  18.1625
    18.1657  18.1669  18.1744  18.1748  18.1823  18.1877  18.2098  18.2121
    18.2163  18.2208  18.2328  18.2370  18.2853  18.2871  18.2876  18.2894
    18.2915  18.2949  18.3012  18.3142  18.3223  18.3252  18.3664  18.3701
    18.3707  18.3738  18.3745  18.3827  18.3871  18.3928  18.4559  18.4716
    18.4757  18.5916  18.7585  18.7979  18.8961  18.9025  18.9439  18.9602
    19.1337  19.1516  19.1563  19.1682  19.1689  19.1770  19.2606  19.2779
    19.2854  19.3013  19.3033  19.3102  19.3149  19.3304  19.3361  19.3940
    19.4042  19.5044  19.5067  19.5460  19.5918  19.5927  19.5943  19.6139
    19.6241  19.7286  19.7374  19.7402  19.7424  19.7494  19.8788  19.8802
    19.9560  20.0845  20.0998  20.1361  20.1438  20.1931  20.1975  20.1976
    20.2045  20.3156  20.3352  20.3634  20.3637  20.3861  20.3942  20.3984
    20.4016  20.4164  20.4195  20.4788  20.5265  20.5315  20.5379  20.6154
    20.6260  20.6415  20.6584  20.9090  20.9419  20.9965  21.0497  21.0500
    21.2129  21.4598  21.5658  21.6211  21.6270  21.6298  21.6795  21.9953

     occupation numbers 
     1.0000   1.0000   1.0000   1.0000   1.0000   1.0000   1.0000   1.0000
     1.0000   1.0000   1.0000   1.0000   1.0000   1.0000   1.0000   1.0000
     1.0000   1.0000   1.0000   1.0000   1.0000   1.0000   1.0000   1.0000
     1.0000   1.0000   1.0000   1.0000   1.0000   1.0000   1.0000   1.0000
     1.0000   1.0000   1.0000   1.0000   1.0000   1.0000   1.0000   1.0000
     1.0000   1.0000   1.0000   1.0000   1.0000   1.0000   1.0000   1.0000
     1.0000   1.0000   1.0000   1.0000   1.0000   1.0000   1.0000   1.0000
     1.0000   1.0000   1.0000   1.0000   1.0000   1.0000   1.0000   1.0000
     1.0000   1.0000   1.0000   1.0000   1.0000   1.0000   1.0000   1.0000
     1.0000   1.0000   1.0000   1.0000   1.0000   1.0000   1.0000   1.0000
     1.0000   1.0000   1.0000   1.0000   1.0000   1.0000   1.0000   1.0000
     1.0000   1.0000   1.0000   1.0000   1.0000   1.0000   1.0000   1.0000
     1.0000   1.0000   1.0000   1.0000   1.0000   1.0000   1.0000   1.0000
     1.0000   1.0000   1.0000   1.0000   1.0000   1.0000   1.0000   1.0000
     1.0000   1.0000   1.0000   1.0000   1.0000   1.0000   1.0000   1.0000
     1.0000   1.0000   1.0000   1.0000   1.0000   1.0000   1.0000   1.0000
     1.0000   1.0000   1.0000   1.0000   1.0000   1.0000   1.0000   1.0000
     1.0000   1.0000   1.0000   1.0000   1.0000   1.0000   1.0000   1.0000
     1.0000   1.0000   1.0000   1.0000   1.0000   1.0000   1.0000   1.0000
     1.0000   1.0000   1.0000   1.0000   1.0000   1.0000   1.0000   1.0000
     1.0000   1.0000   1.0000   1.0000   1.0000   1.0000   1.0000   1.0000
     1.0000   1.0000   1.0000   1.0000   1.0000   1.0000   1.0000   1.0000
     1.0000   1.0000   1.0000   1.0000   1.0000   1.0000   1.0000   1.0000
     1.0000   1.0000   1.0000   1.0000   1.0000   1.0000   1.0000   1.0000
     1.0000   1.0000   1.0000   1.0000   1.0000   1.0000   1.0000   1.0000
     1.0000   1.0000   1.0000   1.0000   1.0000   1.0000   1.0000   1.0000
     1.0000   1.0000   1.0000   1.0000   1.0000   1.0000   1.0000   1.0000
     1.0000   1.0000   1.0000   1.0000   1.0000   1.0000   1.0000   1.0000
     1.0000   1.0000   1.0000   1.0000   1.0000   1.0000   1.0000   1.0000
     1.0000   1.0000   1.0000   1.0000   1.0000   1.0000   1.0000   1.0000
     1.0000   1.0000   1.0000   1.0000   1.0000   1.0000   1.0000   1.0000
     1.0000   1.0000   1.0000   1.0000   1.0000   1.0000   1.0000   1.0000
     1.0000   1.0000   1.0000   1.0000   1.0000   1.0000   1.0000   1.0000
     1.0000   1.0000   1.0000   1.0000   1.0000   1.0000   1.0000   1.0000
     1.0000   1.0000   1.0000   1.0000   1.0000   1.0000   1.0000   1.0000
     1.0000   1.0000   1.0000   1.0000   1.0000   1.0000   1.0000   1.0000
     1.0000   1.0000   1.0000   1.0000   1.0000   1.0000   1.0000   1.0000
     1.0000   1.0000   1.0000   1.0000   1.0000   1.0000   1.0000   1.0000
     1.0000   1.0000   1.0000   1.0000   1.0000   1.0000   1.0000   1.0000
     1.0000   1.0000   1.0000   1.0000   1.0000   1.0000   1.0000   1.0000
     1.0000   1.0000   1.0000   1.0000   1.0000   1.0000   1.0000   1.0000
     1.0000   1.0000   1.0000   1.0000   1.0000   1.0000   1.0000   1.0000
     1.0000   1.0000   1.0000   1.0000   1.0000   1.0000   1.0000   1.0000
     1.0000   1.0000   1.0000   1.0000   1.0000   1.0000   1.0000   1.0000
     1.0000   1.0000   1.0000   1.0000   1.0000   1.0000   1.0000   1.0000
     1.0000   1.0000   1.0000   1.0000   1.0000   1.0000   1.0000   1.0000
     1.0000   1.0000   1.0000   1.0000   1.0000   1.0000   1.0000   1.0000
     1.0000   1.0000   1.0000   1.0000   1.0000   1.0000   1.0000   1.0000
     1.0000   1.0000   1.0000   1.0000   1.0000   1.0000   1.0000   1.0000
     1.0000   1.0000   1.0000   1.0000   1.0000   1.0000   1.0000   1.0000
     1.0000   1.0000   1.0000   1.0000   1.0000   1.0000   1.0000   1.0000
     1.0000   1.0000   1.0000   1.0000   1.0000   1.0000   1.0000   1.0000
     1.0000   1.0000   1.0000   1.0000   1.0000   1.0000   1.0000   1.0000
     1.0000   1.0000   1.0000   1.0000   1.0000   1.0000   1.0000   1.0000
     1.0000   1.0000   1.0000   1.0000   1.0000   1.0000   1.0000   1.0000
     1.0000   1.0000   1.0000   1.0000   1.0000   1.0000   1.0000   1.0000
     1.0000   1.0000   1.0000   1.0000   1.0000   1.0000   1.0000   1.0000
     1.0000   1.0000   1.0000   1.0000   1.0000   1.0000   1.0000   1.0000
     1.0000   1.0000   1.0000   1.0000   1.0000   1.0000   1.0000   1.0000
     1.0000   1.0000   1.0000   1.0000   1.0000   1.0000   1.0000   1.0000
     1.0000   1.0000   1.0000   1.0000   1.0000   1.0000   1.0000   1.0000
     1.0000   1.0000   1.0000   1.0000   1.0000   1.0000   1.0000   1.0000
     1.0000   1.0000   1.0000   1.0000   1.0000   1.0000   1.0000   1.0000
     1.0000   1.0000   1.0000   1.0000   1.0000   1.0000   1.0000   1.0000
     1.0000   1.0000   1.0000   1.0000   1.0000   1.0000   1.0000   1.0000
     1.0000   1.0000   1.0000   1.0000   1.0000   1.0000   1.0000   1.0000
     1.0000   1.0000   1.0000   1.0000   1.0000   1.0000   1.0000   1.0000
     1.0000   1.0000   1.0000   1.0000   1.0000   1.0000   1.0000   1.0000
     1.0000   1.0000   1.0000   1.0000   1.0000   1.0000   1.0000   1.0000
     0.9999   0.9999   0.9998   0.9997   0.9997   0.9997   0.9997   0.9996
     0.9992   0.9990   0.9989   0.9981   0.9978   0.9977   0.9974   0.9972
     0.9964   0.9944   0.9935   0.9928   0.9897   0.9895   0.9891   0.9870
     0.9869   0.9856   0.9831   0.9761   0.9693   0.9675   0.9668   0.9567
     0.9535   0.9380   0.9158   0.9092   0.9061   0.8858   0.8688   0.8592
     0.8268   0.8266   0.8208   0.8048   0.8021   0.7980   0.7936   0.7881
     0.7814   0.7771   0.7718   0.7450   0.7245   0.6548   0.6060   0.5768
     0.5682   0.5646   0.5383   0.4948   0.4924   0.4875   0.4871   0.4350
     0.4246   0.4184   0.4161   0.3558   0.3478   0.3378   0.2943   0.2874
     0.2769   0.2569   0.2209   0.2035   0.1805   0.1769   0.1060   0.1004
     0.0938   0.0918   0.0834   0.0772   0.0577   0.0526   0.0526   0.0498
     0.0438   0.0437   0.0379   0.0346   0.0160   0.0036   0.0007   0.0006
     0.0006   0.0006   0.0005   0.0005   0.0005   0.0004   0.0003   0.0002
     0.0002   0.0001   0.0001   0.0001   0.0001   0.0001   0.0001   0.0001
     0.0000   0.0000   0.0000   0.0000   0.0000   0.0000   0.0000   0.0000
     0.0000   0.0000   0.0000   0.0000   0.0000   0.0000   0.0000   0.0000
     0.0000   0.0000   0.0000   0.0000   0.0000   0.0000   0.0000   0.0000
     0.0000   0.0000   0.0000   0.0000   0.0000   0.0000   0.0000   0.0000
     0.0000   0.0000   0.0000   0.0000   0.0000   0.0000   0.0000   0.0000
     0.0000   0.0000   0.0000   0.0000   0.0000   0.0000   0.0000   0.0000
     0.0000   0.0000   0.0000   0.0000   0.0000   0.0000   0.0000   0.0000
     0.0000   0.0000   0.0000   0.0000   0.0000   0.0000   0.0000   0.0000
     0.0000   0.0000   0.0000   0.0000   0.0000   0.0000   0.0000   0.0000
     0.0000   0.0000   0.0000   0.0000   0.0000   0.0000   0.0000   0.0000
     0.0000   0.0000   0.0000   0.0000   0.0000   0.0000   0.0000   0.0000
     0.0000   0.0000   0.0000   0.0000   0.0000   0.0000   0.0000   0.0000
     0.0000   0.0000   0.0000   0.0000   0.0000   0.0000   0.0000   0.0000
     0.0000   0.0000   0.0000   0.0000   0.0000   0.0000   0.0000   0.0000
     0.0000   0.0000   0.0000   0.0000   0.0000   0.0000   0.0000   0.0000
     0.0000   0.0000   0.0000   0.0000   0.0000   0.0000   0.0000   0.0000
     0.0000   0.0000   0.0000   0.0000   0.0000   0.0000   0.0000   0.0000

          k = 0.2500 0.4330 0.2850 (100562 PWs)   bands (ev):

   -69.1426 -69.1352 -69.1351 -69.0493 -69.0488 -69.0381 -69.0378 -69.0377
   -69.0374 -69.0360 -69.0359 -69.0355 -69.0171 -69.0169 -69.0166 -69.0166
   -69.0165 -69.0162 -69.0118 -69.0117 -69.0115 -69.0051 -69.0050 -69.0049
   -69.0048 -69.0048 -69.0045 -69.0045 -69.0045 -69.0042 -69.0023 -69.0022
   -69.0021 -69.0019 -69.0019 -69.0018 -68.6383 -68.6383 -68.6382 -68.6382
   -68.6378 -68.6377 -68.6372 -68.6372 -68.6372 -68.6371 -68.6371 -68.6370
   -68.6370 -68.6370 -68.6369 -68.6369 -68.6367 -68.6365 -68.6358 -68.6357
   -68.6356 -68.6340 -68.6335 -68.6334 -68.6244 -68.6244 -68.6242 -68.6242
   -68.6241 -68.6241 -68.6180 -68.6179 -68.6175 -68.6175 -68.6174 -68.6174
   -35.5046 -35.4329 -35.4327 -35.3334 -35.3330 -35.3032 -35.3028 -35.3023
   -35.2961 -35.2957 -35.2954 -35.2952 -35.2950 -35.2945 -35.2892 -35.2891
   -35.2654 -35.2604 -35.2603 -35.2601 -35.2599 -35.2444 -35.2430 -35.2421
   -35.2309 -35.2300 -35.2291 -35.2278 -35.2267 -35.2253 -35.2251 -35.2250
   -35.2250 -35.2245 -35.2242 -35.2237 -35.2236 -35.2232 -35.2225 -35.2051
   -35.2046 -35.2046 -35.2043 -35.1873 -35.1859 -35.1849 -35.1838 -35.1813
   -35.1737 -35.1734 -35.1726 -35.1723 -35.1706 -35.1692 -35.1691 -35.1689
   -35.1682 -35.1680 -35.1668 -35.1666 -35.1663 -35.1662 -35.1661 -35.1581
   -35.1572 -35.1563 -35.1542 -35.1534 -35.1526 -35.1516 -35.1511 -35.1507
   -35.1061 -35.0951 -35.0950 -35.0661 -35.0578 -35.0502 -35.0497 -35.0461
   -35.0439 -35.0429 -35.0400 -35.0395 -35.0351 -35.0337 -35.0321 -35.0294
   -35.0279 -35.0261 -35.0230 -35.0224 -35.0204 -35.0199 -35.0154 -35.0147
   -35.0145 -35.0138 -35.0118 -35.0113 -35.0107 -35.0100 -35.0089 -35.0086
   -35.0077 -35.0055 -35.0031 -35.0015 -34.8336 -34.8322 -34.8312 -34.8282
   -34.8276 -34.8274 -34.8273 -34.8272 -34.8269 -34.8268 -34.8266 -34.8262
   -34.8261 -34.8253 -34.8248 -34.8246 -34.8241 -34.8240 -34.8239 -34.8225
   -34.8219 -34.8215 -34.8185 -34.8184 -34.8149 -34.8144 -34.8141 -34.8117
   -34.8103 -34.8095 -34.8032 -34.8007 -34.8004 -34.7991 -34.7987 -34.7966
   -34.7682 -34.7672 -34.7663 -34.7646 -34.7643 -34.7639 -34.7634 -34.7629
   -34.7623 -34.7607 -34.7604 -34.7602 -34.7594 -34.7593 -34.7587 -34.7585
   -34.7583 -34.7582 -34.7576 -34.7568 -34.7556 -34.7553 -34.7546 -34.7543
   -34.7532 -34.7531 -34.7522 -34.7499 -34.7487 -34.7482 -34.7479 -34.7479
   -34.7469 -34.7459 -34.7457 -34.7423 -34.7011 -34.6993 -34.6982 -34.6982
   -34.6976 -34.6974 -34.6957 -34.6904 -34.6896 -34.6892 -34.6870 -34.6865
   -34.6859 -34.6848 -34.6839 -34.6838 -34.6826 -34.6813 -34.6797 -34.6770
   -34.6761 -34.6751 -34.6745 -34.6735 -34.6725 -34.6721 -34.6707 -34.6703
   -34.6701 -34.6696 -34.6647 -34.6643 -34.6639 -34.6635 -34.6609 -34.6608
     3.4132   3.7135   3.8653   4.0445   4.2425   4.3733   4.4355   4.6593
     4.7892   4.9307   4.9907   5.0342   5.0697   5.1069   5.1361   5.1596
     5.2712   5.3303   5.3683   5.4069   5.4104   5.4154   5.4452   5.5432
     5.5968   5.6006   5.6337   5.6368   5.6438   5.6951   5.6956   5.7707
     5.8848   6.0286   6.0317   6.1746   8.3213   9.8992   9.9975  10.0093
    10.0741  10.1229  10.1847  10.1966  10.2117  10.2632  10.3052  10.3373
    10.3487  10.3615  10.3738  10.4077  10.4171  10.4389  10.5786  10.6064
    10.7001  10.7129  10.7197  10.7818  10.7972  10.8275  10.9371  11.0463
    11.0576  11.0971  11.3485  11.3625  11.4058  11.5277  11.6044  11.6101
    11.6283  11.6316  11.6561  11.6688  11.7003  11.7290  11.8271  11.8544
    11.8556  11.9228  11.9741  11.9871  12.1258  12.1589  12.1939  12.2259
    12.2491  12.2539  12.2547  12.2768  12.2938  12.2959  12.3446  12.3899
    12.3965  12.4066  12.4475  12.4624  12.4665  12.4782  12.4859  12.5059
    12.5567  12.5590  12.5894  12.6018  12.6066  12.6723  12.7793  12.7842
    12.8248  12.8553  12.8631  12.8751  12.8824  12.9205  12.9224  12.9550
    13.0124  13.0208  13.0362  13.0517  13.0605  13.1219  13.1331  13.1542
    13.1979  13.2044  13.2086  13.2992  13.3102  13.3283  13.3598  13.3854
    13.4000  13.4048  13.4105  13.4284  13.4635  13.5587  13.6289  13.6620
    14.1680  14.5471  14.5950  14.6049  14.6274  14.6280  14.6519  14.6685
    14.6707  14.6788  14.6795  14.6844  14.6959  14.6962  14.6990  14.7180
    14.7320  14.7508  14.7536  14.7731  14.7759  14.7849  14.7930  14.7971
    14.8017  14.8086  14.8157  14.8333  14.8405  14.8436  14.8492  14.8658
    14.9132  14.9334  14.9382  14.9409  14.9453  14.9553  14.9608  14.9634
    14.9947  14.9976  15.0675  15.0813  15.1094  15.1185  15.1479  15.1560
    15.1569  15.1665  15.1720  15.1881  15.1958  15.2026  15.2036  15.2153
    15.2315  15.2373  15.2424  15.2683  15.2768  15.2848  15.3132  15.3388
    15.3451  15.3513  15.3541  15.4045  15.4052  15.4596  15.4668  15.4747
    15.5154  15.5517  15.5657  15.5684  15.5905  15.6536  15.6617  15.7154
    15.8160  15.8560  15.8697  15.9005  15.9073  15.9187  15.9466  15.9506
    15.9859  15.9951  16.0046  16.0191  16.0246  16.0249  16.0406  16.0515
    16.0727  16.0847  16.0856  16.0958  16.1045  16.1134  16.1238  16.1521
    16.1928  16.1933  16.1999  16.2269  16.2491  16.2729  16.2948  16.3175
    16.3236  16.3272  16.3593  16.3697  16.3819  16.3834  16.3978  16.4357
    16.4414  16.4912  16.4920  16.5193  16.5196  16.5607  16.5800  16.5960
    16.6014  16.6075  16.6114  16.6186  16.6285  16.6364  16.6572  16.6670
    16.6948  16.7047  16.7376  16.7411  16.7488  16.7671  16.7675  16.7861
    16.7964  16.7966  16.8033  16.8170  16.8303  16.8474  16.8754  16.9087
    16.9130  16.9299  16.9387  16.9465  16.9528  16.9560  16.9752  16.9829
    16.9881  16.9898  17.0020  17.0080  17.0113  17.0172  17.0236  17.0301
    17.0319  17.0393  17.0403  17.0449  17.0734  17.0969  17.1111  17.1433
    17.1450  17.1490  17.1740  17.1825  17.1995  17.2110  17.2144  17.2225
    17.2326  17.2394  17.2472  17.2716  17.2743  17.2792  17.3002  17.3017
    17.3103  17.3323  17.3421  17.3670  17.3835  17.3899  17.3988  17.4051
    17.4393  17.4606  17.4860  17.4865  17.4948  17.4990  17.5062  17.5133
    17.5138  17.5346  17.5851  17.5866  17.6430  17.7231  17.7255  17.7375
    17.8539  17.8600  17.8701  17.8808  17.8887  17.8903  17.8998  17.9148
    17.9329  17.9331  17.9404  17.9479  17.9493  17.9524  17.9613  17.9701
    17.9795  17.9810  17.9949  18.0153  18.0189  18.0328  18.0409  18.0451
    18.0516  18.0547  18.0622  18.0681  18.0771  18.0863  18.0944  18.1052
    18.1069  18.1143  18.1287  18.1328  18.1368  18.1435  18.1479  18.1949
    18.1953  18.1987  18.2128  18.2257  18.2271  18.2277  18.2337  18.2404
    18.2459  18.2499  18.2518  18.2614  18.2701  18.2713  18.2969  18.2982
    18.3212  18.3253  18.3371  18.3380  18.3415  18.3711  18.3735  18.3750
    18.3752  18.3887  18.3898  18.3961  18.4022  18.4211  18.4276  18.4552
    18.5222  18.6326  18.7146  18.8119  18.8208  18.8275  18.8653  18.9666
    18.9738  18.9775  19.0602  19.1894  19.1952  19.2115  19.2293  19.2564
    19.2568  19.2663  19.3291  19.3430  19.3502  19.3779  19.4492  19.4601
    19.4887  19.5420  19.5455  19.5688  19.5706  19.5944  19.6202  19.6276
    19.6604  19.6769  19.6868  19.7246  19.7440  19.9201  19.9541  19.9597
    19.9642  19.9832  20.0692  20.0910  20.0987  20.1067  20.1453  20.1649
    20.1679  20.2081  20.2327  20.2928  20.3080  20.3098  20.3316  20.3390
    20.3476  20.3536  20.3725  20.4336  20.5053  20.5358  20.5460  20.5532
    20.5963  20.6172  20.6383  20.6715  20.6905  20.7826  20.9500  20.9894
    21.0830  21.4903  21.5631  21.5703  21.7506  21.8404  21.9655  22.0096

     occupation numbers 
     1.0000   1.0000   1.0000   1.0000   1.0000   1.0000   1.0000   1.0000
     1.0000   1.0000   1.0000   1.0000   1.0000   1.0000   1.0000   1.0000
     1.0000   1.0000   1.0000   1.0000   1.0000   1.0000   1.0000   1.0000
     1.0000   1.0000   1.0000   1.0000   1.0000   1.0000   1.0000   1.0000
     1.0000   1.0000   1.0000   1.0000   1.0000   1.0000   1.0000   1.0000
     1.0000   1.0000   1.0000   1.0000   1.0000   1.0000   1.0000   1.0000
     1.0000   1.0000   1.0000   1.0000   1.0000   1.0000   1.0000   1.0000
     1.0000   1.0000   1.0000   1.0000   1.0000   1.0000   1.0000   1.0000
     1.0000   1.0000   1.0000   1.0000   1.0000   1.0000   1.0000   1.0000
     1.0000   1.0000   1.0000   1.0000   1.0000   1.0000   1.0000   1.0000
     1.0000   1.0000   1.0000   1.0000   1.0000   1.0000   1.0000   1.0000
     1.0000   1.0000   1.0000   1.0000   1.0000   1.0000   1.0000   1.0000
     1.0000   1.0000   1.0000   1.0000   1.0000   1.0000   1.0000   1.0000
     1.0000   1.0000   1.0000   1.0000   1.0000   1.0000   1.0000   1.0000
     1.0000   1.0000   1.0000   1.0000   1.0000   1.0000   1.0000   1.0000
     1.0000   1.0000   1.0000   1.0000   1.0000   1.0000   1.0000   1.0000
     1.0000   1.0000   1.0000   1.0000   1.0000   1.0000   1.0000   1.0000
     1.0000   1.0000   1.0000   1.0000   1.0000   1.0000   1.0000   1.0000
     1.0000   1.0000   1.0000   1.0000   1.0000   1.0000   1.0000   1.0000
     1.0000   1.0000   1.0000   1.0000   1.0000   1.0000   1.0000   1.0000
     1.0000   1.0000   1.0000   1.0000   1.0000   1.0000   1.0000   1.0000
     1.0000   1.0000   1.0000   1.0000   1.0000   1.0000   1.0000   1.0000
     1.0000   1.0000   1.0000   1.0000   1.0000   1.0000   1.0000   1.0000
     1.0000   1.0000   1.0000   1.0000   1.0000   1.0000   1.0000   1.0000
     1.0000   1.0000   1.0000   1.0000   1.0000   1.0000   1.0000   1.0000
     1.0000   1.0000   1.0000   1.0000   1.0000   1.0000   1.0000   1.0000
     1.0000   1.0000   1.0000   1.0000   1.0000   1.0000   1.0000   1.0000
     1.0000   1.0000   1.0000   1.0000   1.0000   1.0000   1.0000   1.0000
     1.0000   1.0000   1.0000   1.0000   1.0000   1.0000   1.0000   1.0000
     1.0000   1.0000   1.0000   1.0000   1.0000   1.0000   1.0000   1.0000
     1.0000   1.0000   1.0000   1.0000   1.0000   1.0000   1.0000   1.0000
     1.0000   1.0000   1.0000   1.0000   1.0000   1.0000   1.0000   1.0000
     1.0000   1.0000   1.0000   1.0000   1.0000   1.0000   1.0000   1.0000
     1.0000   1.0000   1.0000   1.0000   1.0000   1.0000   1.0000   1.0000
     1.0000   1.0000   1.0000   1.0000   1.0000   1.0000   1.0000   1.0000
     1.0000   1.0000   1.0000   1.0000   1.0000   1.0000   1.0000   1.0000
     1.0000   1.0000   1.0000   1.0000   1.0000   1.0000   1.0000   1.0000
     1.0000   1.0000   1.0000   1.0000   1.0000   1.0000   1.0000   1.0000
     1.0000   1.0000   1.0000   1.0000   1.0000   1.0000   1.0000   1.0000
     1.0000   1.0000   1.0000   1.0000   1.0000   1.0000   1.0000   1.0000
     1.0000   1.0000   1.0000   1.0000   1.0000   1.0000   1.0000   1.0000
     1.0000   1.0000   1.0000   1.0000   1.0000   1.0000   1.0000   1.0000
     1.0000   1.0000   1.0000   1.0000   1.0000   1.0000   1.0000   1.0000
     1.0000   1.0000   1.0000   1.0000   1.0000   1.0000   1.0000   1.0000
     1.0000   1.0000   1.0000   1.0000   1.0000   1.0000   1.0000   1.0000
     1.0000   1.0000   1.0000   1.0000   1.0000   1.0000   1.0000   1.0000
     1.0000   1.0000   1.0000   1.0000   1.0000   1.0000   1.0000   1.0000
     1.0000   1.0000   1.0000   1.0000   1.0000   1.0000   1.0000   1.0000
     1.0000   1.0000   1.0000   1.0000   1.0000   1.0000   1.0000   1.0000
     1.0000   1.0000   1.0000   1.0000   1.0000   1.0000   1.0000   1.0000
     1.0000   1.0000   1.0000   1.0000   1.0000   1.0000   1.0000   1.0000
     1.0000   1.0000   1.0000   1.0000   1.0000   1.0000   1.0000   1.0000
     1.0000   1.0000   1.0000   1.0000   1.0000   1.0000   1.0000   1.0000
     1.0000   1.0000   1.0000   1.0000   1.0000   1.0000   1.0000   1.0000
     1.0000   1.0000   1.0000   1.0000   1.0000   1.0000   1.0000   1.0000
     1.0000   1.0000   1.0000   1.0000   1.0000   1.0000   1.0000   1.0000
     1.0000   1.0000   1.0000   1.0000   1.0000   1.0000   1.0000   1.0000
     1.0000   1.0000   1.0000   1.0000   1.0000   1.0000   1.0000   1.0000
     1.0000   1.0000   1.0000   1.0000   1.0000   1.0000   1.0000   1.0000
     1.0000   1.0000   1.0000   1.0000   1.0000   1.0000   1.0000   1.0000
     1.0000   1.0000   1.0000   1.0000   1.0000   1.0000   1.0000   1.0000
     1.0000   1.0000   1.0000   1.0000   1.0000   1.0000   1.0000   1.0000
     1.0000   1.0000   1.0000   1.0000   1.0000   1.0000   1.0000   1.0000
     1.0000   1.0000   1.0000   1.0000   1.0000   1.0000   1.0000   1.0000
     1.0000   1.0000   1.0000   1.0000   1.0000   1.0000   1.0000   1.0000
     1.0000   1.0000   1.0000   1.0000   1.0000   1.0000   1.0000   1.0000
     1.0000   1.0000   1.0000   1.0000   1.0000   1.0000   1.0000   1.0000
     1.0000   1.0000   1.0000   1.0000   1.0000   1.0000   1.0000   1.0000
     1.0000   1.0000   1.0000   1.0000   1.0000   1.0000   1.0000   1.0000
     1.0000   0.9999   0.9999   0.9998   0.9998   0.9996   0.9995   0.9993
     0.9992   0.9991   0.9991   0.9989   0.9987   0.9986   0.9980   0.9976
     0.9963   0.9957   0.9929   0.9926   0.9917   0.9893   0.9892   0.9862
     0.9841   0.9841   0.9827   0.9794   0.9757   0.9701   0.9589   0.9411
     0.9385   0.9271   0.9205   0.9144   0.9091   0.9064   0.8885   0.8808
     0.8752   0.8735   0.8598   0.8527   0.8488   0.8414   0.8333   0.8247
     0.8223   0.8121   0.8107   0.8041   0.7606   0.7212   0.6959   0.6350
     0.6316   0.6237   0.5736   0.5562   0.5212   0.4973   0.4902   0.4734
     0.4527   0.4386   0.4228   0.3738   0.3686   0.3589   0.3190   0.3163
     0.3005   0.2619   0.2457   0.2069   0.1833   0.1745   0.1629   0.1549
     0.1164   0.0961   0.0755   0.0751   0.0692   0.0663   0.0616   0.0573
     0.0570   0.0457   0.0255   0.0251   0.0122   0.0038   0.0037   0.0030
     0.0004   0.0004   0.0003   0.0002   0.0002   0.0002   0.0002   0.0001
     0.0001   0.0001   0.0001   0.0001   0.0001   0.0001   0.0000   0.0000
     0.0000   0.0000   0.0000   0.0000   0.0000   0.0000   0.0000   0.0000
     0.0000   0.0000   0.0000   0.0000   0.0000   0.0000   0.0000   0.0000
     0.0000   0.0000   0.0000   0.0000   0.0000   0.0000   0.0000   0.0000
     0.0000   0.0000   0.0000   0.0000   0.0000   0.0000   0.0000   0.0000
     0.0000   0.0000   0.0000   0.0000   0.0000   0.0000   0.0000   0.0000
     0.0000   0.0000   0.0000   0.0000   0.0000   0.0000   0.0000   0.0000
     0.0000   0.0000   0.0000   0.0000   0.0000   0.0000   0.0000   0.0000
     0.0000   0.0000   0.0000   0.0000   0.0000   0.0000   0.0000   0.0000
     0.0000   0.0000   0.0000   0.0000   0.0000   0.0000   0.0000   0.0000
     0.0000   0.0000   0.0000   0.0000   0.0000   0.0000   0.0000   0.0000
     0.0000   0.0000   0.0000   0.0000   0.0000   0.0000   0.0000   0.0000
     0.0000   0.0000   0.0000   0.0000   0.0000   0.0000   0.0000   0.0000
     0.0000   0.0000   0.0000   0.0000   0.0000   0.0000   0.0000   0.0000
     0.0000   0.0000   0.0000   0.0000   0.0000   0.0000   0.0000   0.0000
     0.0000   0.0000   0.0000   0.0000   0.0000   0.0000   0.0000   0.0000
     0.0000   0.0000   0.0000   0.0000   0.0000   0.0000   0.0000   0.0000
     0.0000   0.0000   0.0000   0.0000   0.0000   0.0000   0.0000   0.0000

          k = 0.2500 0.4330-0.5700 (100580 PWs)   bands (ev):

   -69.1426 -69.1352 -69.1351 -69.0493 -69.0488 -69.0381 -69.0378 -69.0377
   -69.0374 -69.0360 -69.0359 -69.0355 -69.0171 -69.0169 -69.0166 -69.0166
   -69.0165 -69.0162 -69.0118 -69.0117 -69.0115 -69.0051 -69.0050 -69.0049
   -69.0048 -69.0048 -69.0045 -69.0045 -69.0045 -69.0042 -69.0023 -69.0022
   -69.0021 -69.0019 -69.0019 -69.0018 -68.6383 -68.6383 -68.6382 -68.6381
   -68.6378 -68.6377 -68.6372 -68.6372 -68.6372 -68.6371 -68.6371 -68.6370
   -68.6370 -68.6370 -68.6370 -68.6369 -68.6367 -68.6365 -68.6358 -68.6357
   -68.6356 -68.6340 -68.6335 -68.6334 -68.6244 -68.6244 -68.6242 -68.6242
   -68.6241 -68.6241 -68.6180 -68.6179 -68.6175 -68.6175 -68.6174 -68.6174
   -35.5046 -35.4329 -35.4327 -35.3334 -35.3330 -35.3032 -35.3027 -35.3023
   -35.2959 -35.2957 -35.2956 -35.2951 -35.2951 -35.2945 -35.2892 -35.2891
   -35.2654 -35.2605 -35.2603 -35.2601 -35.2599 -35.2445 -35.2430 -35.2421
   -35.2310 -35.2300 -35.2291 -35.2275 -35.2263 -35.2252 -35.2252 -35.2251
   -35.2249 -35.2245 -35.2244 -35.2238 -35.2238 -35.2231 -35.2224 -35.2051
   -35.2046 -35.2045 -35.2044 -35.1873 -35.1859 -35.1849 -35.1838 -35.1813
   -35.1738 -35.1735 -35.1726 -35.1719 -35.1701 -35.1694 -35.1693 -35.1691
   -35.1680 -35.1678 -35.1668 -35.1667 -35.1666 -35.1661 -35.1660 -35.1580
   -35.1571 -35.1562 -35.1545 -35.1536 -35.1528 -35.1514 -35.1510 -35.1505
   -35.1062 -35.0952 -35.0951 -35.0663 -35.0573 -35.0507 -35.0502 -35.0471
   -35.0439 -35.0416 -35.0405 -35.0400 -35.0334 -35.0332 -35.0325 -35.0292
   -35.0277 -35.0263 -35.0237 -35.0235 -35.0211 -35.0201 -35.0145 -35.0134
   -35.0131 -35.0125 -35.0115 -35.0098 -35.0096 -35.0092 -35.0089 -35.0078
   -35.0075 -35.0066 -35.0060 -35.0048 -34.8351 -34.8332 -34.8317 -34.8279
   -34.8274 -34.8273 -34.8272 -34.8271 -34.8268 -34.8265 -34.8264 -34.8262
   -34.8260 -34.8251 -34.8251 -34.8244 -34.8243 -34.8226 -34.8222 -34.8221
   -34.8217 -34.8216 -34.8195 -34.8191 -34.8139 -34.8134 -34.8129 -34.8128
   -34.8117 -34.8112 -34.8022 -34.8004 -34.8001 -34.7995 -34.7991 -34.7979
   -34.7665 -34.7658 -34.7654 -34.7639 -34.7629 -34.7624 -34.7619 -34.7618
   -34.7616 -34.7615 -34.7613 -34.7612 -34.7609 -34.7598 -34.7595 -34.7594
   -34.7592 -34.7588 -34.7581 -34.7569 -34.7553 -34.7548 -34.7547 -34.7546
   -34.7545 -34.7540 -34.7538 -34.7497 -34.7489 -34.7483 -34.7481 -34.7480
   -34.7461 -34.7454 -34.7451 -34.7415 -34.7012 -34.6990 -34.6985 -34.6982
   -34.6975 -34.6975 -34.6957 -34.6905 -34.6896 -34.6892 -34.6870 -34.6866
   -34.6859 -34.6849 -34.6838 -34.6833 -34.6832 -34.6811 -34.6797 -34.6770
   -34.6762 -34.6751 -34.6745 -34.6735 -34.6723 -34.6723 -34.6707 -34.6703
   -34.6700 -34.6695 -34.6647 -34.6644 -34.6638 -34.6635 -34.6608 -34.6608
     3.5007   3.7773   3.9122   4.0355   4.0572   4.0689   4.4826   4.6626
     4.8141   4.8311   5.0081   5.1255   5.1686   5.1922   5.2254   5.2373
     5.2706   5.3951   5.3988   5.4236   5.4257   5.4572   5.5216   5.5240
     5.5317   5.5328   5.5363   5.5523   5.5772   5.7010   5.7296   5.7449
     5.8422   6.0882   6.0911   6.2242   8.2335   9.7944   9.9720   9.9885
     9.9952  10.0410  10.1624  10.1710  10.1812  10.1879  10.1886  10.2583
    10.2949  10.3143  10.3684  10.3898  10.4905  10.5095  10.5296  10.5319
    10.5445  10.5527  10.5590  10.7686  10.7803  10.8783  10.8937  11.0276
    11.0350  11.2592  11.3841  11.6088  11.6273  11.6338  11.6508  11.7435
    11.7454  11.7619  11.7715  11.8397  11.8844  11.8870  11.9681  11.9913
    11.9933  12.0534  12.0653  12.0698  12.0700  12.0899  12.0920  12.2332
    12.2596  12.2941  12.3745  12.3765  12.3786  12.3875  12.3942  12.3971
    12.4173  12.4394  12.4613  12.5618  12.5720  12.5808  12.5948  12.6175
    12.6482  12.6500  12.6583  12.6655  12.6698  12.6711  12.6766  12.6774
    12.6844  12.8001  12.8199  12.8355  12.8355  12.8377  12.8381  12.8455
    12.8614  12.8628  12.9311  13.0189  13.0234  13.1089  13.1105  13.1218
    13.1225  13.1306  13.1375  13.1378  13.1412  13.1495  13.1605  13.3110
    13.3271  13.3277  13.4317  13.4350  13.4362  13.4433  13.4647  13.4809
    14.2161  14.6186  14.6207  14.6418  14.6640  14.6662  14.6680  14.6711
    14.6793  14.6848  14.6850  14.6988  14.7077  14.7082  14.7252  14.7323
    14.7357  14.7442  14.7535  14.7538  14.7556  14.7615  14.7635  14.7793
    14.7903  14.8044  14.8055  14.8183  14.8248  14.8721  14.8818  14.8968
    14.9002  14.9384  14.9464  14.9519  14.9580  14.9621  15.0234  15.0589
    15.0705  15.0743  15.0755  15.0781  15.0881  15.0886  15.1240  15.1364
    15.1370  15.1451  15.1493  15.1496  15.1529  15.1692  15.1759  15.1993
    15.2099  15.2158  15.2204  15.2389  15.2433  15.2659  15.2672  15.2676
    15.2697  15.2861  15.3189  15.3603  15.3605  15.4202  15.5009  15.5073
    15.5103  15.5193  15.5375  15.5481  15.7297  15.7545  15.7696  15.7752
    15.7847  15.7931  15.7948  15.8128  15.8721  15.8923  15.9418  15.9536
    15.9891  16.0104  16.0158  16.0167  16.0218  16.0282  16.0531  16.0947
    16.0981  16.1030  16.1422  16.1432  16.1894  16.1939  16.2033  16.2092
    16.2228  16.2276  16.3085  16.3096  16.3205  16.3344  16.3391  16.3715
    16.3725  16.3789  16.3825  16.4000  16.4032  16.4196  16.4201  16.4213
    16.4239  16.4729  16.4733  16.5633  16.5751  16.5786  16.5863  16.5882
    16.6105  16.6185  16.6207  16.6298  16.6359  16.6389  16.6394  16.6431
    16.6512  16.6565  16.6625  16.6801  16.6968  16.7202  16.7260  16.7674
    16.8292  16.8382  16.8465  16.8489  16.8608  16.8646  16.8718  16.8816
    16.8943  16.9116  16.9142  16.9144  16.9369  16.9406  16.9539  16.9600
    16.9663  16.9709  16.9726  16.9852  16.9882  16.9897  16.9991  17.0012
    17.0066  17.0178  17.0235  17.0476  17.0486  17.0558  17.0644  17.0916
    17.1112  17.1121  17.1401  17.1813  17.2032  17.2098  17.2140  17.2184
    17.2283  17.2383  17.2453  17.2491  17.2496  17.2538  17.2602  17.2843
    17.2996  17.3117  17.3237  17.3281  17.3301  17.4023  17.4067  17.4232
    17.4446  17.4462  17.4551  17.4636  17.4725  17.4867  17.5023  17.5078
    17.5194  17.5233  17.6416  17.6425  17.6580  17.6609  17.7022  17.7240
    17.8552  17.8581  17.8666  17.8779  17.8997  17.9038  17.9080  17.9118
    17.9383  17.9438  17.9448  17.9462  17.9594  17.9619  17.9754  17.9939
    18.0059  18.0147  18.0200  18.0235  18.0274  18.0367  18.0404  18.0420
    18.0550  18.0748  18.0766  18.0776  18.0819  18.0855  18.0899  18.0914
    18.0915  18.0996  18.1048  18.1263  18.1423  18.1661  18.1671  18.1727
    18.1855  18.2047  18.2190  18.2448  18.2668  18.2674  18.2694  18.2747
    18.2825  18.2860  18.2902  18.2932  18.3332  18.3397  18.3409  18.3434
    18.3453  18.3468  18.3577  18.3673  18.3726  18.3778  18.3801  18.3812
    18.3819  18.3840  18.3859  18.3922  18.4290  18.4308  18.4670  18.4711
    18.4892  18.5428  18.7497  18.7596  18.7675  18.7711  18.7761  18.7840
    18.9975  19.0436  19.0445  19.0573  19.0825  19.1866  19.1999  19.2648
    19.2675  19.2722  19.3446  19.4025  19.4127  19.4166  19.4181  19.4286
    19.5395  19.5423  19.5794  19.6427  19.6645  19.6723  19.6951  19.7011
    19.8013  19.8039  19.8078  19.8096  19.8354  19.8494  19.8731  19.9150
    19.9338  19.9443  19.9720  19.9828  20.0502  20.0605  20.0710  20.0729
    20.0916  20.1043  20.1142  20.1346  20.1473  20.1501  20.1848  20.1943
    20.2349  20.3576  20.3846  20.3852  20.3909  20.4072  20.4073  20.5697
    20.6071  20.6095  20.6206  20.7003  20.7124  20.8851  20.9001  20.9389
    21.1398  21.3835  21.5846  21.5890  21.6767  22.1401  22.2018  22.2071

     occupation numbers 
     1.0000   1.0000   1.0000   1.0000   1.0000   1.0000   1.0000   1.0000
     1.0000   1.0000   1.0000   1.0000   1.0000   1.0000   1.0000   1.0000
     1.0000   1.0000   1.0000   1.0000   1.0000   1.0000   1.0000   1.0000
     1.0000   1.0000   1.0000   1.0000   1.0000   1.0000   1.0000   1.0000
     1.0000   1.0000   1.0000   1.0000   1.0000   1.0000   1.0000   1.0000
     1.0000   1.0000   1.0000   1.0000   1.0000   1.0000   1.0000   1.0000
     1.0000   1.0000   1.0000   1.0000   1.0000   1.0000   1.0000   1.0000
     1.0000   1.0000   1.0000   1.0000   1.0000   1.0000   1.0000   1.0000
     1.0000   1.0000   1.0000   1.0000   1.0000   1.0000   1.0000   1.0000
     1.0000   1.0000   1.0000   1.0000   1.0000   1.0000   1.0000   1.0000
     1.0000   1.0000   1.0000   1.0000   1.0000   1.0000   1.0000   1.0000
     1.0000   1.0000   1.0000   1.0000   1.0000   1.0000   1.0000   1.0000
     1.0000   1.0000   1.0000   1.0000   1.0000   1.0000   1.0000   1.0000
     1.0000   1.0000   1.0000   1.0000   1.0000   1.0000   1.0000   1.0000
     1.0000   1.0000   1.0000   1.0000   1.0000   1.0000   1.0000   1.0000
     1.0000   1.0000   1.0000   1.0000   1.0000   1.0000   1.0000   1.0000
     1.0000   1.0000   1.0000   1.0000   1.0000   1.0000   1.0000   1.0000
     1.0000   1.0000   1.0000   1.0000   1.0000   1.0000   1.0000   1.0000
     1.0000   1.0000   1.0000   1.0000   1.0000   1.0000   1.0000   1.0000
     1.0000   1.0000   1.0000   1.0000   1.0000   1.0000   1.0000   1.0000
     1.0000   1.0000   1.0000   1.0000   1.0000   1.0000   1.0000   1.0000
     1.0000   1.0000   1.0000   1.0000   1.0000   1.0000   1.0000   1.0000
     1.0000   1.0000   1.0000   1.0000   1.0000   1.0000   1.0000   1.0000
     1.0000   1.0000   1.0000   1.0000   1.0000   1.0000   1.0000   1.0000
     1.0000   1.0000   1.0000   1.0000   1.0000   1.0000   1.0000   1.0000
     1.0000   1.0000   1.0000   1.0000   1.0000   1.0000   1.0000   1.0000
     1.0000   1.0000   1.0000   1.0000   1.0000   1.0000   1.0000   1.0000
     1.0000   1.0000   1.0000   1.0000   1.0000   1.0000   1.0000   1.0000
     1.0000   1.0000   1.0000   1.0000   1.0000   1.0000   1.0000   1.0000
     1.0000   1.0000   1.0000   1.0000   1.0000   1.0000   1.0000   1.0000
     1.0000   1.0000   1.0000   1.0000   1.0000   1.0000   1.0000   1.0000
     1.0000   1.0000   1.0000   1.0000   1.0000   1.0000   1.0000   1.0000
     1.0000   1.0000   1.0000   1.0000   1.0000   1.0000   1.0000   1.0000
     1.0000   1.0000   1.0000   1.0000   1.0000   1.0000   1.0000   1.0000
     1.0000   1.0000   1.0000   1.0000   1.0000   1.0000   1.0000   1.0000
     1.0000   1.0000   1.0000   1.0000   1.0000   1.0000   1.0000   1.0000
     1.0000   1.0000   1.0000   1.0000   1.0000   1.0000   1.0000   1.0000
     1.0000   1.0000   1.0000   1.0000   1.0000   1.0000   1.0000   1.0000
     1.0000   1.0000   1.0000   1.0000   1.0000   1.0000   1.0000   1.0000
     1.0000   1.0000   1.0000   1.0000   1.0000   1.0000   1.0000   1.0000
     1.0000   1.0000   1.0000   1.0000   1.0000   1.0000   1.0000   1.0000
     1.0000   1.0000   1.0000   1.0000   1.0000   1.0000   1.0000   1.0000
     1.0000   1.0000   1.0000   1.0000   1.0000   1.0000   1.0000   1.0000
     1.0000   1.0000   1.0000   1.0000   1.0000   1.0000   1.0000   1.0000
     1.0000   1.0000   1.0000   1.0000   1.0000   1.0000   1.0000   1.0000
     1.0000   1.0000   1.0000   1.0000   1.0000   1.0000   1.0000   1.0000
     1.0000   1.0000   1.0000   1.0000   1.0000   1.0000   1.0000   1.0000
     1.0000   1.0000   1.0000   1.0000   1.0000   1.0000   1.0000   1.0000
     1.0000   1.0000   1.0000   1.0000   1.0000   1.0000   1.0000   1.0000
     1.0000   1.0000   1.0000   1.0000   1.0000   1.0000   1.0000   1.0000
     1.0000   1.0000   1.0000   1.0000   1.0000   1.0000   1.0000   1.0000
     1.0000   1.0000   1.0000   1.0000   1.0000   1.0000   1.0000   1.0000
     1.0000   1.0000   1.0000   1.0000   1.0000   1.0000   1.0000   1.0000
     1.0000   1.0000   1.0000   1.0000   1.0000   1.0000   1.0000   1.0000
     1.0000   1.0000   1.0000   1.0000   1.0000   1.0000   1.0000   1.0000
     1.0000   1.0000   1.0000   1.0000   1.0000   1.0000   1.0000   1.0000
     1.0000   1.0000   1.0000   1.0000   1.0000   1.0000   1.0000   1.0000
     1.0000   1.0000   1.0000   1.0000   1.0000   1.0000   1.0000   1.0000
     1.0000   1.0000   1.0000   1.0000   1.0000   1.0000   1.0000   1.0000
     1.0000   1.0000   1.0000   1.0000   1.0000   1.0000   1.0000   1.0000
     1.0000   1.0000   1.0000   1.0000   1.0000   1.0000   1.0000   1.0000
     1.0000   1.0000   1.0000   1.0000   1.0000   1.0000   1.0000   1.0000
     1.0000   1.0000   1.0000   1.0000   1.0000   1.0000   1.0000   1.0000
     1.0000   1.0000   1.0000   1.0000   1.0000   1.0000   1.0000   1.0000
     1.0000   1.0000   1.0000   1.0000   1.0000   1.0000   1.0000   1.0000
     1.0000   1.0000   1.0000   1.0000   1.0000   1.0000   1.0000   1.0000
     1.0000   1.0000   1.0000   1.0000   1.0000   1.0000   1.0000   1.0000
     1.0000   1.0000   1.0000   1.0000   1.0000   1.0000   1.0000   1.0000
     1.0000   1.0000   1.0000   1.0000   1.0000   1.0000   1.0000   1.0000
     1.0000   0.9999   0.9999   0.9996   0.9995   0.9995   0.9994   0.9994
     0.9991   0.9989   0.9989   0.9987   0.9986   0.9985   0.9985   0.9984
     0.9982   0.9980   0.9978   0.9970   0.9962   0.9945   0.9940   0.9892
     0.9760   0.9732   0.9705   0.9696   0.9651   0.9635   0.9605   0.9559
     0.9494   0.9393   0.9377   0.9375   0.9219   0.9191   0.9082   0.9028
     0.8971   0.8928   0.8911   0.8784   0.8752   0.8735   0.8631   0.8607
     0.8544   0.8407   0.8334   0.8002   0.7988   0.7881   0.7749   0.7303
     0.6957   0.6941   0.6413   0.5587   0.5135   0.4998   0.4911   0.4819
     0.4616   0.4410   0.4265   0.4189   0.4179   0.4093   0.3965   0.3491
     0.3202   0.2979   0.2768   0.2692   0.2657   0.1585   0.1529   0.1336
     0.1111   0.1095   0.1011   0.0935   0.0860   0.0750   0.0642   0.0607
     0.0538   0.0516   0.0124   0.0123   0.0099   0.0095   0.0052   0.0038
     0.0004   0.0004   0.0003   0.0003   0.0002   0.0002   0.0001   0.0001
     0.0001   0.0001   0.0001   0.0001   0.0000   0.0000   0.0000   0.0000
     0.0000   0.0000   0.0000   0.0000   0.0000   0.0000   0.0000   0.0000
     0.0000   0.0000   0.0000   0.0000   0.0000   0.0000   0.0000   0.0000
     0.0000   0.0000   0.0000   0.0000   0.0000   0.0000   0.0000   0.0000
     0.0000   0.0000   0.0000   0.0000   0.0000   0.0000   0.0000   0.0000
     0.0000   0.0000   0.0000   0.0000   0.0000   0.0000   0.0000   0.0000
     0.0000   0.0000   0.0000   0.0000   0.0000   0.0000   0.0000   0.0000
     0.0000   0.0000   0.0000   0.0000   0.0000   0.0000   0.0000   0.0000
     0.0000   0.0000   0.0000   0.0000   0.0000   0.0000   0.0000   0.0000
     0.0000   0.0000   0.0000   0.0000   0.0000   0.0000   0.0000   0.0000
     0.0000   0.0000   0.0000   0.0000   0.0000   0.0000   0.0000   0.0000
     0.0000   0.0000   0.0000   0.0000   0.0000   0.0000   0.0000   0.0000
     0.0000   0.0000   0.0000   0.0000   0.0000   0.0000   0.0000   0.0000
     0.0000   0.0000   0.0000   0.0000   0.0000   0.0000   0.0000   0.0000
     0.0000   0.0000   0.0000   0.0000   0.0000   0.0000   0.0000   0.0000
     0.0000   0.0000   0.0000   0.0000   0.0000   0.0000   0.0000   0.0000
     0.0000   0.0000   0.0000   0.0000   0.0000   0.0000   0.0000   0.0000
     0.0000   0.0000   0.0000   0.0000   0.0000   0.0000   0.0000   0.0000

          k =-0.2500-0.4330 0.2850 (100562 PWs)   bands (ev):

   -69.1426 -69.1352 -69.1351 -69.0493 -69.0488 -69.0381 -69.0378 -69.0377
   -69.0374 -69.0360 -69.0359 -69.0355 -69.0171 -69.0169 -69.0166 -69.0166
   -69.0165 -69.0162 -69.0118 -69.0117 -69.0115 -69.0051 -69.0050 -69.0049
   -69.0048 -69.0048 -69.0045 -69.0045 -69.0045 -69.0042 -69.0023 -69.0022
   -69.0021 -69.0019 -69.0019 -69.0018 -68.6383 -68.6383 -68.6382 -68.6382
   -68.6378 -68.6377 -68.6372 -68.6372 -68.6372 -68.6371 -68.6371 -68.6370
   -68.6370 -68.6370 -68.6369 -68.6369 -68.6367 -68.6365 -68.6358 -68.6357
   -68.6356 -68.6340 -68.6335 -68.6334 -68.6244 -68.6244 -68.6242 -68.6242
   -68.6241 -68.6241 -68.6180 -68.6179 -68.6175 -68.6175 -68.6174 -68.6174
   -35.5046 -35.4329 -35.4327 -35.3334 -35.3330 -35.3032 -35.3028 -35.3023
   -35.2961 -35.2957 -35.2954 -35.2952 -35.2950 -35.2945 -35.2892 -35.2891
   -35.2654 -35.2604 -35.2603 -35.2601 -35.2599 -35.2444 -35.2430 -35.2421
   -35.2309 -35.2300 -35.2291 -35.2278 -35.2267 -35.2253 -35.2251 -35.2250
   -35.2250 -35.2245 -35.2242 -35.2237 -35.2236 -35.2232 -35.2225 -35.2051
   -35.2046 -35.2046 -35.2043 -35.1873 -35.1859 -35.1849 -35.1838 -35.1813
   -35.1737 -35.1734 -35.1726 -35.1723 -35.1706 -35.1692 -35.1691 -35.1689
   -35.1682 -35.1680 -35.1668 -35.1666 -35.1663 -35.1662 -35.1661 -35.1581
   -35.1572 -35.1563 -35.1542 -35.1534 -35.1526 -35.1516 -35.1511 -35.1507
   -35.1061 -35.0951 -35.0950 -35.0661 -35.0578 -35.0502 -35.0497 -35.0461
   -35.0439 -35.0429 -35.0400 -35.0395 -35.0351 -35.0337 -35.0321 -35.0294
   -35.0279 -35.0261 -35.0230 -35.0224 -35.0204 -35.0199 -35.0154 -35.0147
   -35.0145 -35.0138 -35.0118 -35.0113 -35.0107 -35.0100 -35.0089 -35.0086
   -35.0077 -35.0055 -35.0031 -35.0015 -34.8336 -34.8322 -34.8312 -34.8282
   -34.8276 -34.8274 -34.8273 -34.8272 -34.8269 -34.8268 -34.8266 -34.8262
   -34.8261 -34.8253 -34.8248 -34.8246 -34.8241 -34.8240 -34.8239 -34.8225
   -34.8219 -34.8215 -34.8185 -34.8184 -34.8149 -34.8144 -34.8141 -34.8117
   -34.8103 -34.8095 -34.8032 -34.8007 -34.8004 -34.7991 -34.7987 -34.7966
   -34.7682 -34.7672 -34.7663 -34.7646 -34.7643 -34.7639 -34.7634 -34.7629
   -34.7623 -34.7607 -34.7604 -34.7602 -34.7594 -34.7593 -34.7587 -34.7585
   -34.7583 -34.7582 -34.7576 -34.7568 -34.7556 -34.7553 -34.7546 -34.7543
   -34.7532 -34.7531 -34.7522 -34.7499 -34.7487 -34.7482 -34.7479 -34.7479
   -34.7469 -34.7459 -34.7457 -34.7423 -34.7011 -34.6993 -34.6982 -34.6982
   -34.6976 -34.6974 -34.6957 -34.6904 -34.6896 -34.6892 -34.6870 -34.6865
   -34.6859 -34.6848 -34.6839 -34.6838 -34.6826 -34.6813 -34.6797 -34.6770
   -34.6761 -34.6751 -34.6745 -34.6735 -34.6725 -34.6721 -34.6707 -34.6703
   -34.6701 -34.6696 -34.6647 -34.6643 -34.6639 -34.6635 -34.6609 -34.6608
     3.4132   3.7135   3.8653   4.0445   4.2425   4.3733   4.4355   4.6593
     4.7892   4.9307   4.9907   5.0342   5.0697   5.1069   5.1361   5.1596
     5.2712   5.3303   5.3683   5.4069   5.4104   5.4154   5.4452   5.5432
     5.5968   5.6006   5.6337   5.6368   5.6438   5.6951   5.6956   5.7707
     5.8848   6.0286   6.0317   6.1746   8.3213   9.8992   9.9975  10.0093
    10.0741  10.1229  10.1847  10.1965  10.2117  10.2632  10.3052  10.3373
    10.3487  10.3615  10.3738  10.4077  10.4171  10.4389  10.5786  10.6064
    10.7001  10.7129  10.7197  10.7818  10.7972  10.8275  10.9371  11.0463
    11.0576  11.0971  11.3485  11.3625  11.4058  11.5277  11.6044  11.6101
    11.6283  11.6316  11.6561  11.6688  11.7003  11.7290  11.8271  11.8544
    11.8556  11.9228  11.9741  11.9871  12.1258  12.1589  12.1939  12.2259
    12.2491  12.2539  12.2547  12.2768  12.2938  12.2959  12.3446  12.3899
    12.3965  12.4066  12.4475  12.4624  12.4665  12.4782  12.4859  12.5059
    12.5566  12.5590  12.5894  12.6018  12.6066  12.6723  12.7793  12.7842
    12.8248  12.8553  12.8631  12.8751  12.8824  12.9205  12.9224  12.9550
    13.0124  13.0208  13.0362  13.0517  13.0605  13.1219  13.1331  13.1542
    13.1979  13.2044  13.2086  13.2992  13.3102  13.3283  13.3598  13.3854
    13.4000  13.4048  13.4104  13.4284  13.4635  13.5587  13.6289  13.6620
    14.1680  14.5471  14.5950  14.6049  14.6274  14.6280  14.6519  14.6685
    14.6707  14.6788  14.6795  14.6844  14.6959  14.6962  14.6990  14.7180
    14.7320  14.7508  14.7536  14.7731  14.7759  14.7849  14.7930  14.7971
    14.8017  14.8086  14.8157  14.8333  14.8405  14.8436  14.8492  14.8658
    14.9132  14.9334  14.9382  14.9409  14.9453  14.9553  14.9608  14.9634
    14.9947  14.9976  15.0675  15.0813  15.1094  15.1185  15.1479  15.1560
    15.1569  15.1665  15.1720  15.1881  15.1958  15.2026  15.2036  15.2153
    15.2315  15.2373  15.2424  15.2683  15.2768  15.2848  15.3132  15.3388
    15.3451  15.3513  15.3540  15.4045  15.4052  15.4596  15.4668  15.4747
    15.5154  15.5517  15.5657  15.5684  15.5905  15.6536  15.6617  15.7154
    15.8159  15.8560  15.8697  15.9005  15.9073  15.9187  15.9466  15.9506
    15.9859  15.9951  16.0046  16.0191  16.0246  16.0249  16.0406  16.0515
    16.0727  16.0847  16.0856  16.0958  16.1045  16.1134  16.1238  16.1521
    16.1928  16.1933  16.1999  16.2269  16.2491  16.2729  16.2948  16.3175
    16.3236  16.3272  16.3593  16.3697  16.3819  16.3834  16.3978  16.4357
    16.4414  16.4912  16.4920  16.5193  16.5196  16.5607  16.5800  16.5960
    16.6014  16.6075  16.6114  16.6186  16.6285  16.6364  16.6572  16.6670
    16.6948  16.7047  16.7376  16.7411  16.7488  16.7671  16.7675  16.7861
    16.7964  16.7966  16.8033  16.8170  16.8303  16.8474  16.8754  16.9087
    16.9129  16.9299  16.9387  16.9464  16.9528  16.9560  16.9752  16.9829
    16.9881  16.9898  17.0020  17.0080  17.0113  17.0172  17.0236  17.0301
    17.0319  17.0393  17.0403  17.0449  17.0734  17.0969  17.1111  17.1433
    17.1450  17.1490  17.1740  17.1825  17.1995  17.2110  17.2144  17.2225
    17.2326  17.2394  17.2472  17.2716  17.2743  17.2792  17.3002  17.3017
    17.3103  17.3323  17.3421  17.3670  17.3835  17.3899  17.3988  17.4051
    17.4393  17.4606  17.4860  17.4865  17.4948  17.4990  17.5062  17.5133
    17.5138  17.5346  17.5851  17.5866  17.6430  17.7231  17.7255  17.7375
    17.8539  17.8600  17.8701  17.8808  17.8887  17.8903  17.8998  17.9148
    17.9329  17.9331  17.9404  17.9479  17.9493  17.9524  17.9613  17.9701
    17.9795  17.9810  17.9949  18.0153  18.0189  18.0328  18.0409  18.0451
    18.0516  18.0547  18.0622  18.0681  18.0771  18.0863  18.0944  18.1052
    18.1069  18.1143  18.1286  18.1328  18.1368  18.1435  18.1479  18.1949
    18.1953  18.1987  18.2128  18.2257  18.2271  18.2277  18.2337  18.2404
    18.2459  18.2499  18.2518  18.2614  18.2701  18.2713  18.2969  18.2982
    18.3212  18.3253  18.3371  18.3380  18.3415  18.3711  18.3735  18.3750
    18.3752  18.3887  18.3898  18.3961  18.4022  18.4211  18.4276  18.4552
    18.5222  18.6326  18.7146  18.8119  18.8208  18.8275  18.8653  18.9666
    18.9738  18.9775  19.0602  19.1894  19.1952  19.2115  19.2293  19.2564
    19.2568  19.2663  19.3291  19.3430  19.3502  19.3779  19.4492  19.4601
    19.4887  19.5420  19.5455  19.5688  19.5706  19.5944  19.6202  19.6276
    19.6604  19.6769  19.6868  19.7246  19.7440  19.9201  19.9541  19.9597
    19.9642  19.9832  20.0692  20.0910  20.0987  20.1067  20.1453  20.1649
    20.1679  20.2081  20.2327  20.2928  20.3080  20.3098  20.3316  20.3390
    20.3476  20.3536  20.3725  20.4336  20.5053  20.5358  20.5460  20.5532
    20.5963  20.6172  20.6383  20.6715  20.6905  20.7826  20.9500  20.9894
    21.0830  21.4903  21.5631  21.5703  21.7506  21.8401  21.9640  22.0093

     occupation numbers 
     1.0000   1.0000   1.0000   1.0000   1.0000   1.0000   1.0000   1.0000
     1.0000   1.0000   1.0000   1.0000   1.0000   1.0000   1.0000   1.0000
     1.0000   1.0000   1.0000   1.0000   1.0000   1.0000   1.0000   1.0000
     1.0000   1.0000   1.0000   1.0000   1.0000   1.0000   1.0000   1.0000
     1.0000   1.0000   1.0000   1.0000   1.0000   1.0000   1.0000   1.0000
     1.0000   1.0000   1.0000   1.0000   1.0000   1.0000   1.0000   1.0000
     1.0000   1.0000   1.0000   1.0000   1.0000   1.0000   1.0000   1.0000
     1.0000   1.0000   1.0000   1.0000   1.0000   1.0000   1.0000   1.0000
     1.0000   1.0000   1.0000   1.0000   1.0000   1.0000   1.0000   1.0000
     1.0000   1.0000   1.0000   1.0000   1.0000   1.0000   1.0000   1.0000
     1.0000   1.0000   1.0000   1.0000   1.0000   1.0000   1.0000   1.0000
     1.0000   1.0000   1.0000   1.0000   1.0000   1.0000   1.0000   1.0000
     1.0000   1.0000   1.0000   1.0000   1.0000   1.0000   1.0000   1.0000
     1.0000   1.0000   1.0000   1.0000   1.0000   1.0000   1.0000   1.0000
     1.0000   1.0000   1.0000   1.0000   1.0000   1.0000   1.0000   1.0000
     1.0000   1.0000   1.0000   1.0000   1.0000   1.0000   1.0000   1.0000
     1.0000   1.0000   1.0000   1.0000   1.0000   1.0000   1.0000   1.0000
     1.0000   1.0000   1.0000   1.0000   1.0000   1.0000   1.0000   1.0000
     1.0000   1.0000   1.0000   1.0000   1.0000   1.0000   1.0000   1.0000
     1.0000   1.0000   1.0000   1.0000   1.0000   1.0000   1.0000   1.0000
     1.0000   1.0000   1.0000   1.0000   1.0000   1.0000   1.0000   1.0000
     1.0000   1.0000   1.0000   1.0000   1.0000   1.0000   1.0000   1.0000
     1.0000   1.0000   1.0000   1.0000   1.0000   1.0000   1.0000   1.0000
     1.0000   1.0000   1.0000   1.0000   1.0000   1.0000   1.0000   1.0000
     1.0000   1.0000   1.0000   1.0000   1.0000   1.0000   1.0000   1.0000
     1.0000   1.0000   1.0000   1.0000   1.0000   1.0000   1.0000   1.0000
     1.0000   1.0000   1.0000   1.0000   1.0000   1.0000   1.0000   1.0000
     1.0000   1.0000   1.0000   1.0000   1.0000   1.0000   1.0000   1.0000
     1.0000   1.0000   1.0000   1.0000   1.0000   1.0000   1.0000   1.0000
     1.0000   1.0000   1.0000   1.0000   1.0000   1.0000   1.0000   1.0000
     1.0000   1.0000   1.0000   1.0000   1.0000   1.0000   1.0000   1.0000
     1.0000   1.0000   1.0000   1.0000   1.0000   1.0000   1.0000   1.0000
     1.0000   1.0000   1.0000   1.0000   1.0000   1.0000   1.0000   1.0000
     1.0000   1.0000   1.0000   1.0000   1.0000   1.0000   1.0000   1.0000
     1.0000   1.0000   1.0000   1.0000   1.0000   1.0000   1.0000   1.0000
     1.0000   1.0000   1.0000   1.0000   1.0000   1.0000   1.0000   1.0000
     1.0000   1.0000   1.0000   1.0000   1.0000   1.0000   1.0000   1.0000
     1.0000   1.0000   1.0000   1.0000   1.0000   1.0000   1.0000   1.0000
     1.0000   1.0000   1.0000   1.0000   1.0000   1.0000   1.0000   1.0000
     1.0000   1.0000   1.0000   1.0000   1.0000   1.0000   1.0000   1.0000
     1.0000   1.0000   1.0000   1.0000   1.0000   1.0000   1.0000   1.0000
     1.0000   1.0000   1.0000   1.0000   1.0000   1.0000   1.0000   1.0000
     1.0000   1.0000   1.0000   1.0000   1.0000   1.0000   1.0000   1.0000
     1.0000   1.0000   1.0000   1.0000   1.0000   1.0000   1.0000   1.0000
     1.0000   1.0000   1.0000   1.0000   1.0000   1.0000   1.0000   1.0000
     1.0000   1.0000   1.0000   1.0000   1.0000   1.0000   1.0000   1.0000
     1.0000   1.0000   1.0000   1.0000   1.0000   1.0000   1.0000   1.0000
     1.0000   1.0000   1.0000   1.0000   1.0000   1.0000   1.0000   1.0000
     1.0000   1.0000   1.0000   1.0000   1.0000   1.0000   1.0000   1.0000
     1.0000   1.0000   1.0000   1.0000   1.0000   1.0000   1.0000   1.0000
     1.0000   1.0000   1.0000   1.0000   1.0000   1.0000   1.0000   1.0000
     1.0000   1.0000   1.0000   1.0000   1.0000   1.0000   1.0000   1.0000
     1.0000   1.0000   1.0000   1.0000   1.0000   1.0000   1.0000   1.0000
     1.0000   1.0000   1.0000   1.0000   1.0000   1.0000   1.0000   1.0000
     1.0000   1.0000   1.0000   1.0000   1.0000   1.0000   1.0000   1.0000
     1.0000   1.0000   1.0000   1.0000   1.0000   1.0000   1.0000   1.0000
     1.0000   1.0000   1.0000   1.0000   1.0000   1.0000   1.0000   1.0000
     1.0000   1.0000   1.0000   1.0000   1.0000   1.0000   1.0000   1.0000
     1.0000   1.0000   1.0000   1.0000   1.0000   1.0000   1.0000   1.0000
     1.0000   1.0000   1.0000   1.0000   1.0000   1.0000   1.0000   1.0000
     1.0000   1.0000   1.0000   1.0000   1.0000   1.0000   1.0000   1.0000
     1.0000   1.0000   1.0000   1.0000   1.0000   1.0000   1.0000   1.0000
     1.0000   1.0000   1.0000   1.0000   1.0000   1.0000   1.0000   1.0000
     1.0000   1.0000   1.0000   1.0000   1.0000   1.0000   1.0000   1.0000
     1.0000   1.0000   1.0000   1.0000   1.0000   1.0000   1.0000   1.0000
     1.0000   1.0000   1.0000   1.0000   1.0000   1.0000   1.0000   1.0000
     1.0000   1.0000   1.0000   1.0000   1.0000   1.0000   1.0000   1.0000
     1.0000   1.0000   1.0000   1.0000   1.0000   1.0000   1.0000   1.0000
     1.0000   1.0000   1.0000   1.0000   1.0000   1.0000   1.0000   1.0000
     1.0000   0.9999   0.9999   0.9998   0.9998   0.9996   0.9995   0.9993
     0.9992   0.9991   0.9991   0.9989   0.9987   0.9986   0.9980   0.9976
     0.9963   0.9957   0.9929   0.9926   0.9917   0.9893   0.9892   0.9862
     0.9841   0.9841   0.9827   0.9794   0.9757   0.9701   0.9589   0.9411
     0.9385   0.9270   0.9205   0.9144   0.9091   0.9064   0.8885   0.8808
     0.8752   0.8735   0.8598   0.8527   0.8488   0.8414   0.8333   0.8247
     0.8223   0.8121   0.8107   0.8041   0.7606   0.7212   0.6959   0.6350
     0.6316   0.6237   0.5736   0.5562   0.5211   0.4973   0.4902   0.4734
     0.4527   0.4386   0.4228   0.3738   0.3686   0.3589   0.3190   0.3163
     0.3005   0.2619   0.2457   0.2069   0.1833   0.1745   0.1629   0.1549
     0.1164   0.0961   0.0755   0.0751   0.0692   0.0663   0.0616   0.0573
     0.0570   0.0457   0.0255   0.0251   0.0122   0.0038   0.0037   0.0030
     0.0004   0.0004   0.0003   0.0002   0.0002   0.0002   0.0002   0.0001
     0.0001   0.0001   0.0001   0.0001   0.0001   0.0001   0.0000   0.0000
     0.0000   0.0000   0.0000   0.0000   0.0000   0.0000   0.0000   0.0000
     0.0000   0.0000   0.0000   0.0000   0.0000   0.0000   0.0000   0.0000
     0.0000   0.0000   0.0000   0.0000   0.0000   0.0000   0.0000   0.0000
     0.0000   0.0000   0.0000   0.0000   0.0000   0.0000   0.0000   0.0000
     0.0000   0.0000   0.0000   0.0000   0.0000   0.0000   0.0000   0.0000
     0.0000   0.0000   0.0000   0.0000   0.0000   0.0000   0.0000   0.0000
     0.0000   0.0000   0.0000   0.0000   0.0000   0.0000   0.0000   0.0000
     0.0000   0.0000   0.0000   0.0000   0.0000   0.0000   0.0000   0.0000
     0.0000   0.0000   0.0000   0.0000   0.0000   0.0000   0.0000   0.0000
     0.0000   0.0000   0.0000   0.0000   0.0000   0.0000   0.0000   0.0000
     0.0000   0.0000   0.0000   0.0000   0.0000   0.0000   0.0000   0.0000
     0.0000   0.0000   0.0000   0.0000   0.0000   0.0000   0.0000   0.0000
     0.0000   0.0000   0.0000   0.0000   0.0000   0.0000   0.0000   0.0000
     0.0000   0.0000   0.0000   0.0000   0.0000   0.0000   0.0000   0.0000
     0.0000   0.0000   0.0000   0.0000   0.0000   0.0000   0.0000   0.0000
     0.0000   0.0000   0.0000   0.0000   0.0000   0.0000   0.0000   0.0000
     0.0000   0.0000   0.0000   0.0000   0.0000   0.0000   0.0000   0.0000

     the Fermi energy is    17.2097 ev

!    total energy              =  -25711.58196793 Ry
     total all-electron energy =   -207916.816337 Ry
     estimated scf accuracy    <       0.00000010 Ry
     smearing contrib. (-TS)   =      -0.27314926 Ry
     internal energy E=F+TS    =  -25711.30881866 Ry

     The total energy is F=E-TS. E is the sum of the following terms:
     one-electron contribution =   -9316.65037000 Ry
     hartree contribution      =    5525.50414707 Ry
     xc contribution           =   -2674.27402678 Ry
     ewald contribution        =  -12251.32535399 Ry
     one-center paw contrib.   =   -6994.56321496 Ry
      -> PAW hartree energy AE =     430.17741801 Ry
      -> PAW hartree energy PS =    -428.44963283 Ry
      -> PAW xc energy AE      =    -223.21380823 Ry
      -> PAW xc energy PS      =      69.18533197 Ry
      -> total E_H with PAW    =    5527.23193225 Ry
      -> total E_XC with PAW   =   -2828.30250305 Ry

     total magnetization       =   105.93 Bohr mag/cell
     absolute magnetization    =   116.01 Bohr mag/cell

     convergence has been achieved in  25 iterations

     negative rho (up, down):  0.000E+00 1.151E-03

     Forces acting on atoms (cartesian axes, Ry/au):

     atom    1 type  1   force =     0.00096663   -0.00167425    0.00000104
     atom    2 type  1   force =    -0.00027767    0.00048093    0.00071570
     atom    3 type  1   force =    -0.00027770    0.00048099   -0.00071651
     atom    4 type  1   force =     0.00012858   -0.00022271    0.00000058
     atom    5 type  1   force =    -0.00018958    0.00032836   -0.00057321
     atom    6 type  1   force =    -0.00018964    0.00032847    0.00057297
     atom    7 type  1   force =     0.00014688    0.00003195    0.00000019
     atom    8 type  1   force =     0.00010401    0.00002574   -0.00015300
     atom    9 type  1   force =     0.00010423    0.00002585    0.00015265
     atom   10 type  1   force =    -0.00010111   -0.00011123    0.00000019
     atom   11 type  1   force =    -0.00007430   -0.00007721   -0.00015300
     atom   12 type  1   force =    -0.00007450   -0.00007734    0.00015265
     atom   13 type  1   force =     0.00012858    0.00022271    0.00000058
     atom   14 type  1   force =    -0.00018958   -0.00032836   -0.00057321
     atom   15 type  1   force =    -0.00018964   -0.00032847    0.00057297
     atom   16 type  1   force =     0.00014688   -0.00003195    0.00000019
     atom   17 type  1   force =     0.00010401   -0.00002574   -0.00015300
     atom   18 type  1   force =     0.00010423   -0.00002585    0.00015265
     atom   19 type  1   force =    -0.00010111    0.00011123    0.00000019
     atom   20 type  1   force =    -0.00007430    0.00007721   -0.00015300
     atom   21 type  1   force =    -0.00007450    0.00007734    0.00015265
     atom   22 type  1   force =     0.00096663    0.00167425    0.00000104
     atom   23 type  1   force =    -0.00027767   -0.00048093    0.00071570
     atom   24 type  1   force =    -0.00027770   -0.00048099   -0.00071651
     atom   25 type  1   force =    -0.00193326   -0.00000000    0.00000104
     atom   26 type  1   force =     0.00055533    0.00000000    0.00071570
     atom   27 type  1   force =     0.00055540    0.00000000   -0.00071651
     atom   28 type  1   force =    -0.00004577    0.00014318    0.00000019
     atom   29 type  1   force =    -0.00002971    0.00010295   -0.00015300
     atom   30 type  1   force =    -0.00002973    0.00010319    0.00015265
     atom   31 type  1   force =    -0.00025717    0.00000000    0.00000058
     atom   32 type  1   force =     0.00037916   -0.00000000   -0.00057321
     atom   33 type  1   force =     0.00037928   -0.00000000    0.00057297
     atom   34 type  1   force =    -0.00004577   -0.00014318    0.00000019
     atom   35 type  1   force =    -0.00002971   -0.00010295   -0.00015300
     atom   36 type  1   force =    -0.00002973   -0.00010319    0.00015265
     atom   37 type  1   force =    -0.00042719    0.00073992    0.00028409
     atom   38 type  1   force =    -0.00046183    0.00079992   -0.00000057
     atom   39 type  1   force =    -0.00042769    0.00074079   -0.00028336
     atom   40 type  1   force =    -0.00028270    0.00048965    0.00007634
     atom   41 type  1   force =    -0.00064561    0.00111822   -0.00000043
     atom   42 type  1   force =    -0.00028336    0.00049079   -0.00007647
     atom   43 type  1   force =    -0.00034975    0.00042973   -0.00027177
     atom   44 type  1   force =    -0.00048922    0.00037454   -0.00000007
     atom   45 type  1   force =    -0.00035032    0.00043031    0.00027261
     atom   46 type  1   force =    -0.00019729    0.00051776   -0.00027177
     atom   47 type  1   force =    -0.00007975    0.00061094   -0.00000007
     atom   48 type  1   force =    -0.00019750    0.00051854    0.00027261
     atom   49 type  1   force =    -0.00028270   -0.00048965    0.00007634
     atom   50 type  1   force =    -0.00064561   -0.00111822   -0.00000043
     atom   51 type  1   force =    -0.00028336   -0.00049079   -0.00007647
     atom   52 type  1   force =    -0.00034975   -0.00042973   -0.00027177
     atom   53 type  1   force =    -0.00048922   -0.00037454   -0.00000007
     atom   54 type  1   force =    -0.00035032   -0.00043031    0.00027261
     atom   55 type  1   force =    -0.00019729   -0.00051776   -0.00027177
     atom   56 type  1   force =    -0.00007975   -0.00061094   -0.00000007
     atom   57 type  1   force =    -0.00019750   -0.00051854    0.00027261
     atom   58 type  1   force =    -0.00042719   -0.00073992    0.00028409
     atom   59 type  1   force =    -0.00046183   -0.00079992   -0.00000057
     atom   60 type  1   force =    -0.00042769   -0.00074079   -0.00028336
     atom   61 type  1   force =     0.00085438   -0.00000000    0.00028409
     atom   62 type  1   force =     0.00092366    0.00000000   -0.00000057
     atom   63 type  1   force =     0.00085539    0.00000000   -0.00028336
     atom   64 type  1   force =     0.00054703   -0.00008802   -0.00027177
     atom   65 type  1   force =     0.00056897   -0.00023641   -0.00000007
     atom   66 type  1   force =     0.00054782   -0.00008824    0.00027261
     atom   67 type  1   force =     0.00056540   -0.00000000    0.00007634
     atom   68 type  1   force =     0.00129121    0.00000000   -0.00000043
     atom   69 type  1   force =     0.00056672   -0.00000000   -0.00007647
     atom   70 type  1   force =     0.00054703    0.00008802   -0.00027177
     atom   71 type  1   force =     0.00056897    0.00023641   -0.00000007
     atom   72 type  1   force =     0.00054782    0.00008824    0.00027261
     atom   73 type  2   force =     0.00020059    0.00061011    0.00000029
     atom   74 type  2   force =    -0.00009856   -0.00006546   -0.00007182
     atom   75 type  2   force =    -0.00009856   -0.00006554    0.00007243
     atom   76 type  2   force =     0.00042808   -0.00047877    0.00000029
     atom   77 type  2   force =    -0.00000741    0.00011809   -0.00007182
     atom   78 type  2   force =    -0.00000748    0.00011813    0.00007243
     atom   79 type  2   force =     0.00000000    0.00000000   -0.00000005
     atom   80 type  2   force =     0.00000000    0.00000000    0.00012403
     atom   81 type  2   force =     0.00000000    0.00000000   -0.00012382
     atom   82 type  2   force =    -0.00062867   -0.00013134    0.00000029
     atom   83 type  2   force =     0.00010598   -0.00005263   -0.00007182
     atom   84 type  2   force =     0.00010604   -0.00005259    0.00007243
     atom   85 type  2   force =     0.00042808    0.00047877    0.00000029
     atom   86 type  2   force =    -0.00000741   -0.00011809   -0.00007182
     atom   87 type  2   force =    -0.00000748   -0.00011813    0.00007243
     atom   88 type  2   force =     0.00000000    0.00000000   -0.00000005
     atom   89 type  2   force =     0.00000000    0.00000000    0.00012403
     atom   90 type  2   force =     0.00000000    0.00000000   -0.00012382
     atom   91 type  2   force =    -0.00062867    0.00013134    0.00000029
     atom   92 type  2   force =     0.00010598    0.00005263   -0.00007182
     atom   93 type  2   force =     0.00010604    0.00005259    0.00007243
     atom   94 type  2   force =     0.00020059   -0.00061011    0.00000029
     atom   95 type  2   force =    -0.00009856    0.00006546   -0.00007182
     atom   96 type  2   force =    -0.00009856    0.00006554    0.00007243
     atom   97 type  2   force =     0.00000000    0.00000000   -0.00083239
     atom   98 type  2   force =     0.00000000    0.00000000   -0.00000089
     atom   99 type  2   force =     0.00000000    0.00000000    0.00082902
     atom  100 type  2   force =     0.00003144   -0.00005445   -0.00033155
     atom  101 type  2   force =    -0.00019121    0.00033119    0.00000007
     atom  102 type  2   force =     0.00003130   -0.00005421    0.00033204
     atom  103 type  2   force =    -0.00006287    0.00000000   -0.00033155
     atom  104 type  2   force =     0.00038242   -0.00000000    0.00000007
     atom  105 type  2   force =    -0.00006260   -0.00000000    0.00033204
     atom  106 type  2   force =     0.00003144    0.00005445   -0.00033155
     atom  107 type  2   force =    -0.00019121   -0.00033119    0.00000007
     atom  108 type  2   force =     0.00003130    0.00005421    0.00033204
     atom  109 type  3   force =     0.00000000   -0.00000000   -0.00000728
     The non-local contrib.  to forces
     atom    1 type  1   force =     0.10032718   -0.17377178    0.00003215
     atom    2 type  1   force =     0.01492515   -0.02585113   -0.01827774
     atom    3 type  1   force =     0.01491610   -0.02583544    0.01825117
     atom    4 type  1   force =    -0.00004005    0.00006937   -0.00000181
     atom    5 type  1   force =     0.00153019   -0.00265038    0.00346495
     atom    6 type  1   force =     0.00152879   -0.00264794   -0.00345993
     atom    7 type  1   force =    -0.00085572   -0.00060637    0.00000209
     atom    8 type  1   force =     0.00181539    0.00062239    0.00062491
     atom    9 type  1   force =     0.00181299    0.00062500   -0.00062448
     atom   10 type  1   force =     0.00095300    0.00043789    0.00000209
     atom   11 type  1   force =    -0.00144670   -0.00126098    0.00062491
     atom   12 type  1   force =    -0.00144775   -0.00125759   -0.00062448
     atom   13 type  1   force =    -0.00004005   -0.00006937   -0.00000181
     atom   14 type  1   force =     0.00153019    0.00265038    0.00346495
     atom   15 type  1   force =     0.00152879    0.00264794   -0.00345993
     atom   16 type  1   force =    -0.00085572    0.00060637    0.00000209
     atom   17 type  1   force =     0.00181539   -0.00062239    0.00062491
     atom   18 type  1   force =     0.00181299   -0.00062500   -0.00062448
     atom   19 type  1   force =     0.00095300   -0.00043789    0.00000209
     atom   20 type  1   force =    -0.00144670    0.00126098    0.00062491
     atom   21 type  1   force =    -0.00144775    0.00125759   -0.00062448
     atom   22 type  1   force =     0.10032718    0.17377178    0.00003215
     atom   23 type  1   force =     0.01492515    0.02585113   -0.01827774
     atom   24 type  1   force =     0.01491610    0.02583544    0.01825117
     atom   25 type  1   force =    -0.20065436    0.00000000    0.00003215
     atom   26 type  1   force =    -0.02985031   -0.00000000   -0.01827774
     atom   27 type  1   force =    -0.02983220    0.00000000    0.01825117
     atom   28 type  1   force =    -0.00009727   -0.00104426    0.00000209
     atom   29 type  1   force =    -0.00036869    0.00188337    0.00062491
     atom   30 type  1   force =    -0.00036523    0.00188259   -0.00062448
     atom   31 type  1   force =     0.00008010    0.00000000   -0.00000181
     atom   32 type  1   force =    -0.00306039    0.00000000    0.00346495
     atom   33 type  1   force =    -0.00305758    0.00000000   -0.00345993
     atom   34 type  1   force =    -0.00009727    0.00104426    0.00000209
     atom   35 type  1   force =    -0.00036869   -0.00188337    0.00062491
     atom   36 type  1   force =    -0.00036523   -0.00188259   -0.00062448
     atom   37 type  1   force =    -0.00337991    0.00585417    0.00982822
     atom   38 type  1   force =    -0.00396644    0.00687007    0.00000451
     atom   39 type  1   force =    -0.00338370    0.00586075   -0.00983309
     atom   40 type  1   force =    -0.00721342    0.01249400    0.00567819
     atom   41 type  1   force =    -0.00318891    0.00552336    0.00000568
     atom   42 type  1   force =    -0.00720911    0.01248655   -0.00568174
     atom   43 type  1   force =    -0.00332458    0.00598482    0.00079902
     atom   44 type  1   force =    -0.00595443    0.00871568    0.00000085
     atom   45 type  1   force =    -0.00332821    0.00598832   -0.00079873
     atom   46 type  1   force =    -0.00352072    0.00587158    0.00079902
     atom   47 type  1   force =    -0.00457079    0.00951453    0.00000085
     atom   48 type  1   force =    -0.00352193    0.00587647   -0.00079873
     atom   49 type  1   force =    -0.00721342   -0.01249400    0.00567819
     atom   50 type  1   force =    -0.00318891   -0.00552336    0.00000568
     atom   51 type  1   force =    -0.00720911   -0.01248655   -0.00568174
     atom   52 type  1   force =    -0.00332458   -0.00598482    0.00079902
     atom   53 type  1   force =    -0.00595443   -0.00871568    0.00000085
     atom   54 type  1   force =    -0.00332821   -0.00598832   -0.00079873
     atom   55 type  1   force =    -0.00352072   -0.00587158    0.00079902
     atom   56 type  1   force =    -0.00457079   -0.00951453    0.00000085
     atom   57 type  1   force =    -0.00352193   -0.00587647   -0.00079873
     atom   58 type  1   force =    -0.00337991   -0.00585417    0.00982822
     atom   59 type  1   force =    -0.00396644   -0.00687007    0.00000451
     atom   60 type  1   force =    -0.00338370   -0.00586075   -0.00983309
     atom   61 type  1   force =     0.00675982    0.00000000    0.00982822
     atom   62 type  1   force =     0.00793287   -0.00000000    0.00000451
     atom   63 type  1   force =     0.00676741    0.00000000   -0.00983309
     atom   64 type  1   force =     0.00684530    0.00011324    0.00079902
     atom   65 type  1   force =     0.01052522   -0.00079885    0.00000085
     atom   66 type  1   force =     0.00685014    0.00011185   -0.00079873
     atom   67 type  1   force =     0.01442683   -0.00000000    0.00567819
     atom   68 type  1   force =     0.00637783    0.00000000    0.00000568
     atom   69 type  1   force =     0.01441823   -0.00000000   -0.00568174
     atom   70 type  1   force =     0.00684530   -0.00011324    0.00079902
     atom   71 type  1   force =     0.01052522    0.00079885    0.00000085
     atom   72 type  1   force =     0.00685014   -0.00011185   -0.00079873
     atom   73 type  2   force =     0.00009238    0.00464552   -0.00000002
     atom   74 type  2   force =    -0.00017350    0.00130298    0.00073197
     atom   75 type  2   force =    -0.00017415    0.00129986   -0.00073138
     atom   76 type  2   force =     0.00397695   -0.00240277   -0.00000002
     atom   77 type  2   force =     0.00121517   -0.00050124    0.00073197
     atom   78 type  2   force =     0.00121278   -0.00049911   -0.00073138
     atom   79 type  2   force =     0.00000000    0.00000000   -0.00000009
     atom   80 type  2   force =     0.00000000    0.00000000    0.00046201
     atom   81 type  2   force =     0.00000000    0.00000000   -0.00046182
     atom   82 type  2   force =    -0.00406933   -0.00224276   -0.00000002
     atom   83 type  2   force =    -0.00104167   -0.00080175    0.00073197
     atom   84 type  2   force =    -0.00103864   -0.00080075   -0.00073138
     atom   85 type  2   force =     0.00397695    0.00240277   -0.00000002
     atom   86 type  2   force =     0.00121517    0.00050124    0.00073197
     atom   87 type  2   force =     0.00121278    0.00049911   -0.00073138
     atom   88 type  2   force =     0.00000000   -0.00000000   -0.00000009
     atom   89 type  2   force =     0.00000000    0.00000000    0.00046201
     atom   90 type  2   force =     0.00000000   -0.00000000   -0.00046182
     atom   91 type  2   force =    -0.00406933    0.00224276   -0.00000002
     atom   92 type  2   force =    -0.00104167    0.00080175    0.00073197
     atom   93 type  2   force =    -0.00103864    0.00080075   -0.00073138
     atom   94 type  2   force =     0.00009238   -0.00464552   -0.00000002
     atom   95 type  2   force =    -0.00017350   -0.00130298    0.00073197
     atom   96 type  2   force =    -0.00017415   -0.00129986   -0.00073138
     atom   97 type  2   force =     0.00000000   -0.00000000   -0.13794638
     atom   98 type  2   force =     0.00000000    0.00000000   -0.00000166
     atom   99 type  2   force =     0.00000000    0.00000000    0.13784010
     atom  100 type  2   force =     0.00042142   -0.00072993    0.00043631
     atom  101 type  2   force =     0.00009200   -0.00015935    0.00000045
     atom  102 type  2   force =     0.00042153   -0.00073011   -0.00043633
     atom  103 type  2   force =    -0.00084285   -0.00000000    0.00043631
     atom  104 type  2   force =    -0.00018400    0.00000000    0.00000045
     atom  105 type  2   force =    -0.00084306    0.00000000   -0.00043633
     atom  106 type  2   force =     0.00042142    0.00072993    0.00043631
     atom  107 type  2   force =     0.00009200    0.00015935    0.00000045
     atom  108 type  2   force =     0.00042153    0.00073011   -0.00043633
     atom  109 type  3   force =    -0.00000000    0.00000000    0.00000442
     The ionic contribution  to forces
     atom    1 type  1   force =    -1.41360952    2.44846517    0.00093426
     atom    2 type  1   force =    -2.32121433    4.02050772   -1.20975674
     atom    3 type  1   force =    -2.32124189    4.02055646    1.20894458
     atom    4 type  1   force =    -2.98349134    5.16755061    0.00061594
     atom    5 type  1   force =    -2.73886958    4.74386401   -0.76634861
     atom    6 type  1   force =    -2.73866603    4.74351203    0.76575348
     atom    7 type  1   force =    -2.67490957    4.36741141    0.00038583
     atom    8 type  1   force =    -2.54952191    4.66864754   -0.44989672
     atom    9 type  1   force =    -2.54934139    4.66898254    0.44952836
     atom   10 type  1   force =    -2.44483023    4.50022909    0.00038603
     atom   11 type  1   force =    -2.76839852    4.54227139   -0.44989056
     atom   12 type  1   force =    -2.76877969    4.54228136    0.44952192
     atom   13 type  1   force =    -2.98353735   -5.16778036    0.00061611
     atom   14 type  1   force =    -2.73899466   -4.74406827   -0.76630732
     atom   15 type  1   force =    -2.73879106   -4.74371657    0.76571152
     atom   16 type  1   force =    -2.67476755   -4.36742387    0.00038652
     atom   17 type  1   force =    -2.54942596   -4.66858665   -0.44989201
     atom   18 type  1   force =    -2.54924548   -4.66892308    0.44952285
     atom   19 type  1   force =    -2.44478647   -4.50026091    0.00038460
     atom   20 type  1   force =    -2.76829259   -4.54221195   -0.44993795
     atom   21 type  1   force =    -2.76867227   -4.54222208    0.44957100
     atom   22 type  1   force =    -1.41389407   -2.44883417    0.00093481
     atom   23 type  1   force =    -2.32132871   -4.02033404   -1.20971977
     atom   24 type  1   force =    -2.32135626   -4.02038282    1.20890702
     atom   25 type  1   force =     2.82765035    0.00008242    0.00093491
     atom   26 type  1   force =     4.64238455    0.00020591   -1.20972449
     atom   27 type  1   force =     4.64244041    0.00020693    1.20891121
     atom   28 type  1   force =     5.11974303   -0.13288061    0.00038563
     atom   29 type  1   force =     5.31783110    0.12631257   -0.44993819
     atom   30 type  1   force =     5.31803026    0.12663784    0.44957089
     atom   31 type  1   force =     5.96717728   -0.00005018    0.00061611
     atom   32 type  1   force =     5.47795920    0.00003180   -0.76630928
     atom   33 type  1   force =     5.47755390    0.00003246    0.76571351
     atom   34 type  1   force =     5.11966738    0.13271302    0.00038579
     atom   35 type  1   force =     5.31782671   -0.12641502   -0.44988566
     atom   36 type  1   force =     5.31802550   -0.12673916    0.44951750
     atom   37 type  1   force =     1.64074898   -2.84183314   -0.45913851
     atom   38 type  1   force =     1.47262964   -2.55064360   -0.00059779
     atom   39 type  1   force =     1.64054809   -2.84148828    0.45972802
     atom   40 type  1   force =     1.08416612   -1.87784021   -1.14339567
     atom   41 type  1   force =     1.29029075   -2.23485453   -0.00064258
     atom   42 type  1   force =     1.08409715   -1.87772401    1.14386076
     atom   43 type  1   force =     1.02836841   -2.49016500   -0.53884630
     atom   44 type  1   force =     1.34582225   -2.36386443   -0.00039006
     atom   45 type  1   force =     1.02863769   -2.49003299    0.53926157
     atom   46 type  1   force =     1.64232370   -2.13566920   -0.53883875
     atom   47 type  1   force =     1.37423499   -2.34745942   -0.00039043
     atom   48 type  1   force =     1.64207353   -2.13583604    0.53925415
     atom   49 type  1   force =     1.08415739    1.87772189   -1.14321251
     atom   50 type  1   force =     1.29033073    2.23493833   -0.00064192
     atom   51 type  1   force =     1.08408854    1.87760291    1.14367860
     atom   52 type  1   force =     1.02845405    2.48992404   -0.53886822
     atom   53 type  1   force =     1.34591170    2.36366379   -0.00038843
     atom   54 type  1   force =     1.02872323    2.48978857    0.53928288
     atom   55 type  1   force =     1.64246372    2.13586772   -0.53891538
     atom   56 type  1   force =     1.37425852    2.34751003   -0.00038994
     atom   57 type  1   force =     1.64221616    2.13603703    0.53933113
     atom   58 type  1   force =     1.64073791    2.84203578   -0.45937825
     atom   59 type  1   force =     1.47264466    2.55084263   -0.00059813
     atom   60 type  1   force =     1.64053958    2.84168971    0.45996853
     atom   61 type  1   force =    -3.28166407    0.00012458   -0.45935561
     atom   62 type  1   force =    -2.94543280    0.00010129   -0.00059828
     atom   63 type  1   force =    -3.28126435    0.00012647    0.45994558
     atom   64 type  1   force =    -2.67098710   -0.35447783   -0.53891439
     atom   65 type  1   force =    -2.72016775   -0.01638032   -0.00038999
     atom   66 type  1   force =    -2.67100741   -0.35417740    0.53932948
     atom   67 type  1   force =    -2.16825651   -0.00001610   -1.14322792
     atom   68 type  1   force =    -2.58069005    0.00004326   -0.00064248
     atom   69 type  1   force =    -2.16812081   -0.00001498    1.14369430
     atom   70 type  1   force =    -2.67055763    0.35432087   -0.53885771
     atom   71 type  1   force =    -2.71996364    0.01626934   -0.00038994
     atom   72 type  1   force =    -2.67057736    0.35402078    0.53927311
     atom   73 type  2   force =     0.21788613   -0.15067081    0.00020925
     atom   74 type  2   force =     0.07777649   -0.08005726   -0.23794345
     atom   75 type  2   force =     0.07774118   -0.08002200    0.23774959
     atom   76 type  2   force =    -0.23949911   -0.11325623    0.00020969
     atom   77 type  2   force =    -0.10824541   -0.02734670   -0.23792737
     atom   78 type  2   force =    -0.10819708   -0.02733424    0.23773284
     atom   79 type  2   force =     0.00004572   -0.00001059    0.00008772
     atom   80 type  2   force =     0.00003663   -0.00000367   -0.09027923
     atom   81 type  2   force =     0.00003684   -0.00000379    0.09019242
     atom   82 type  2   force =     0.02170702    0.26403927    0.00020928
     atom   83 type  2   force =     0.03042713    0.10744193   -0.23793919
     atom   84 type  2   force =     0.03041408    0.10739390    0.23774496
     atom   85 type  2   force =    -0.23952207    0.11323706    0.00020896
     atom   86 type  2   force =    -0.10826857    0.02737173   -0.23794150
     atom   87 type  2   force =    -0.10821994    0.02735874    0.23774759
     atom   88 type  2   force =    -0.00002786   -0.00004392    0.00008809
     atom   89 type  2   force =    -0.00002618   -0.00003229   -0.09027944
     atom   90 type  2   force =    -0.00002646   -0.00003256    0.09019233
     atom   91 type  2   force =     0.02153275   -0.26403331    0.00020867
     atom   92 type  2   force =     0.03043878   -0.10738686   -0.23794221
     atom   93 type  2   force =     0.03042583   -0.10733814    0.23774888
     atom   94 type  2   force =     0.21782121    0.15079570    0.00020902
     atom   95 type  2   force =     0.07780857    0.08006786   -0.23792567
     atom   96 type  2   force =     0.07777326    0.08003243    0.23773209
     atom   97 type  2   force =    -0.00003629    0.00009076   -1.65565101
     atom   98 type  2   force =    -0.00001029    0.00003524   -0.00018061
     atom   99 type  2   force =    -0.00003613    0.00009097    1.65491302
     atom  100 type  2   force =    -0.04266498    0.07390656   -0.19800858
     atom  101 type  2   force =    -0.04496965    0.07789996   -0.00015946
     atom  102 type  2   force =    -0.04267864    0.07393057    0.19817456
     atom  103 type  2   force =     0.08540634    0.00000212   -0.19800624
     atom  104 type  2   force =     0.09004073    0.00001289   -0.00015989
     atom  105 type  2   force =     0.08543386    0.00000192    0.19817241
     atom  106 type  2   force =    -0.04270058   -0.07396501   -0.19800626
     atom  107 type  2   force =    -0.04502721   -0.07797527   -0.00015974
     atom  108 type  2   force =    -0.04271451   -0.07398902    0.19817226
     atom  109 type  3   force =     0.00001717   -0.00003197    0.00067422
     The local contribution  to forces
     atom    1 type  1   force =     1.30878402   -2.26418388   -0.00095433
     atom    2 type  1   force =     2.29761159   -3.97633509    1.22981361
     atom    3 type  1   force =     2.29764451   -3.97640620   -1.22897097
     atom    4 type  1   force =     2.97622390   -5.15251112   -0.00061012
     atom    5 type  1   force =     2.72866535   -4.72294963    0.76209587
     atom    6 type  1   force =     2.72845244   -4.72261606   -0.76150199
     atom    7 type  1   force =     2.66813549   -4.34852977   -0.00038376
     atom    8 type  1   force =     2.53961670   -4.65007798    0.44884867
     atom    9 type  1   force =     2.53945176   -4.65040963   -0.44849733
     atom   10 type  1   force =     2.43403632   -4.48390190   -0.00039446
     atom   11 type  1   force =     2.75992306   -4.52288040    0.44909088
     atom   12 type  1   force =     2.76030700   -4.52289287   -0.44872882
     atom   13 type  1   force =     2.97590319    5.17439881   -0.00062086
     atom   14 type  1   force =     2.72750128    4.75131841    0.76246198
     atom   15 type  1   force =     2.72730670    4.75096733   -0.76186807
     atom   16 type  1   force =     2.66834131    4.37576223   -0.00040516
     atom   17 type  1   force =     2.53836681    4.67943751    0.45007776
     atom   18 type  1   force =     2.53818572    4.67976932   -0.44970143
     atom   19 type  1   force =     2.43739928    4.50761362   -0.00037306
     atom   20 type  1   force =     2.76141239    4.55090709    0.44807260
     atom   21 type  1   force =     2.76179832    4.55092299   -0.44771054
     atom   22 type  1   force =     1.30319914    2.27828746   -0.00096148
     atom   23 type  1   force =     2.29676717    4.00403031    1.22728795
     atom   24 type  1   force =     2.29680223    4.00409100   -1.22645598
     atom   25 type  1   force =    -2.62375215    0.01161656   -0.00097934
     atom   26 type  1   force =    -4.61358301    0.01431837    1.22756229
     atom   27 type  1   force =    -4.61365310    0.01432540   -1.22672675
     atom   28 type  1   force =    -5.11999478    0.14429124   -0.00038376
     atom   29 type  1   force =    -5.31939588   -0.11443530    0.44795861
     atom   30 type  1   force =    -5.31959466   -0.11477567   -0.44756798
     atom   31 type  1   force =    -5.96718795    0.01119346   -0.00061014
     atom   32 type  1   force =    -5.47607240    0.01514322    0.76240920
     atom   33 type  1   force =    -5.47565917    0.01516436   -0.76182600
     atom   34 type  1   force =    -5.12146927   -0.12207187   -0.00038376
     atom   35 type  1   force =    -5.31917267    0.14274512    0.45016674
     atom   36 type  1   force =    -5.31938140    0.14306081   -0.44980826
     atom   37 type  1   force =    -1.64265606    2.84833669    0.44955599
     atom   38 type  1   force =    -1.47652758    2.56091623    0.00059447
     atom   39 type  1   force =    -1.64247512    2.84796589   -0.45012580
     atom   40 type  1   force =    -1.08378860    1.87965354    1.13593139
     atom   41 type  1   force =    -1.29493230    2.24564217    0.00063407
     atom   42 type  1   force =    -1.08373528    1.87951825   -1.13640890
     atom   43 type  1   force =    -1.03171468    2.49924180    0.53876507
     atom   44 type  1   force =    -1.34755917    2.37012911    0.00037952
     atom   45 type  1   force =    -1.03198914    2.49909358   -0.53918277
     atom   46 type  1   force =    -1.64631388    2.14460935    0.53886652
     atom   47 type  1   force =    -1.37617489    2.35381416    0.00038655
     atom   48 type  1   force =    -1.64605407    2.14479013   -0.53929474
     atom   49 type  1   force =    -1.08346947   -1.85522399    1.13799860
     atom   50 type  1   force =    -1.29414991   -2.21711824    0.00064108
     atom   51 type  1   force =    -1.08343204   -1.85511624   -1.13845851
     atom   52 type  1   force =    -1.03213796   -2.47297202    0.53753727
     atom   53 type  1   force =    -1.34804494   -2.34300407    0.00041117
     atom   54 type  1   force =    -1.03241977   -2.47286523   -0.53795847
     atom   55 type  1   force =    -1.64377136   -2.11738925    0.53663123
     atom   56 type  1   force =    -1.37654996   -2.32394661    0.00037953
     atom   57 type  1   force =    -1.64350209   -2.11753213   -0.53703138
     atom   58 type  1   force =    -1.64617569   -2.82558289    0.44991320
     atom   59 type  1   force =    -1.47698896   -2.53037215    0.00059099
     atom   60 type  1   force =    -1.64595325   -2.82524064   -0.45049703
     atom   61 type  1   force =     3.27182229    0.01433170    0.44987419
     atom   62 type  1   force =     2.93247107    0.01559985    0.00059098
     atom   63 type  1   force =     3.27142849    0.01436400   -0.45047201
     atom   64 type  1   force =     2.65782134    0.36643876    0.53675370
     atom   65 type  1   force =     2.70319224    0.03182443    0.00039008
     atom   66 type  1   force =     2.65784009    0.36615207   -0.53716789
     atom   67 type  1   force =     2.15059809    0.01252870    1.13780720
     atom   68 type  1   force =     2.56965642    0.01417938    0.00063053
     atom   69 type  1   force =     2.15046623    0.01252870   -1.13825658
     atom   70 type  1   force =     2.66023613   -0.34111647    0.53777515
     atom   71 type  1   force =     2.70567614   -0.00216315    0.00038304
     atom   72 type  1   force =     2.66024697   -0.34083697   -0.53818231
     atom   73 type  2   force =    -0.21751757    0.14677047   -0.00020883
     atom   74 type  2   force =    -0.07755769    0.07843888    0.23713376
     atom   75 type  2   force =    -0.07752166    0.07840683   -0.23694002
     atom   76 type  2   force =     0.23625894    0.11463636   -0.00020880
     atom   77 type  2   force =     0.10726292    0.02756290    0.23712489
     atom   78 type  2   force =     0.10721720    0.02754782   -0.23693111
     atom   79 type  2   force =     0.00011804   -0.00034541   -0.00008781
     atom   80 type  2   force =     0.00013590   -0.00037318    0.08996429
     atom   81 type  2   force =     0.00013575   -0.00037310   -0.08987762
     atom   82 type  2   force =    -0.01836610   -0.26227166   -0.00020882
     atom   83 type  2   force =    -0.02918629   -0.10706963    0.23712580
     atom   84 type  2   force =    -0.02917640   -0.10702252   -0.23693198
     atom   85 type  2   force =     0.23627190   -0.11526349   -0.00020882
     atom   86 type  2   force =     0.10725342   -0.02829494    0.23712680
     atom   87 type  2   force =     0.10720711   -0.02827985   -0.23693298
     atom   88 type  2   force =     0.00018408   -0.00031582   -0.00008783
     atom   89 type  2   force =     0.00019328   -0.00034708    0.08996430
     atom   90 type  2   force =     0.00019318   -0.00034691   -0.08987763
     atom   91 type  2   force =    -0.01840409    0.26172565   -0.00020885
     atom   92 type  2   force =    -0.02921774    0.10634747    0.23713357
     atom   93 type  2   force =    -0.02920796    0.10629979   -0.23693982
     atom   94 type  2   force =    -0.21745763   -0.14731293   -0.00020883
     atom   95 type  2   force =    -0.07756689   -0.07914653    0.23712412
     atom   96 type  2   force =    -0.07753057   -0.07911396   -0.23693034
     atom   97 type  2   force =     0.00008198   -0.00017889    1.78417871
     atom   98 type  2   force =     0.00006489   -0.00014083    0.00018012
     atom   99 type  2   force =     0.00008201   -0.00017867   -1.78334284
     atom  100 type  2   force =     0.04236683   -0.07341315    0.19723841
     atom  101 type  2   force =     0.04479172   -0.07761491    0.00015914
     atom  102 type  2   force =     0.04238049   -0.07343637   -0.19740445
     atom  103 type  2   force =    -0.08457222   -0.00015511    0.19722596
     atom  104 type  2   force =    -0.08938552   -0.00016695    0.00015925
     atom  105 type  2   force =    -0.08459944   -0.00015537   -0.19739121
     atom  106 type  2   force =     0.04239638    0.07315351    0.19722407
     atom  107 type  2   force =     0.04480957    0.07731251    0.00015936
     atom  108 type  2   force =     0.04240980    0.07317691   -0.19738943
     atom  109 type  3   force =    -0.00000026   -0.00000000   -0.00068590
     The core correction contribution to forces
     atom    1 type  1   force =     0.00397206   -0.00697346    0.00000004
     atom    2 type  1   force =     0.00258188   -0.00458438    0.00027657
     atom    3 type  1   force =     0.00258187   -0.00458388   -0.00027662
     atom    4 type  1   force =     0.00273787   -0.00482727   -0.00000007
     atom    5 type  1   force =     0.00260005   -0.00461547   -0.00013272
     atom    6 type  1   force =     0.00260034   -0.00461476    0.00013232
     atom    7 type  1   force =     0.00285579   -0.00476668   -0.00000020
     atom    8 type  1   force =     0.00263532   -0.00471707    0.00004139
     atom    9 type  1   force =     0.00263479   -0.00471734   -0.00004092
     atom   10 type  1   force =     0.00262514   -0.00489232    0.00000018
     atom   11 type  1   force =     0.00267581   -0.00469377    0.00003284
     atom   12 type  1   force =     0.00267582   -0.00469381   -0.00003275
     atom   13 type  1   force =     0.00274686    0.00406642    0.00000031
     atom   14 type  1   force =     0.00263709    0.00362832   -0.00014481
     atom   15 type  1   force =     0.00263675    0.00362821    0.00014441
     atom   16 type  1   force =     0.00284615    0.00381956    0.00000055
     atom   17 type  1   force =     0.00267586    0.00369541   -0.00000195
     atom   18 type  1   force =     0.00267589    0.00369567    0.00000154
     atom   19 type  1   force =     0.00250604    0.00406789   -0.00000058
     atom   20 type  1   force =     0.00262109    0.00371892    0.00006881
     atom   21 type  1   force =     0.00262102    0.00371884   -0.00006871
     atom   22 type  1   force =     0.00416603    0.00648400    0.00000029
     atom   23 type  1   force =     0.00260897    0.00362130    0.00036618
     atom   24 type  1   force =     0.00260889    0.00362115   -0.00036585
     atom   25 type  1   force =    -0.00772964   -0.00040328    0.00000092
     atom   26 type  1   force =    -0.00452395   -0.00049599    0.00035645
     atom   27 type  1   force =    -0.00452379   -0.00049623   -0.00035624
     atom   28 type  1   force =    -0.00485997   -0.00018256   -0.00000020
     atom   29 type  1   force =    -0.00461878   -0.00046467    0.00007283
     atom   30 type  1   force =    -0.00461896   -0.00046417   -0.00007374
     atom   31 type  1   force =    -0.00496207   -0.00038724   -0.00000007
     atom   32 type  1   force =    -0.00454588   -0.00052395   -0.00014304
     atom   33 type  1   force =    -0.00454603   -0.00052468    0.00014301
     atom   34 type  1   force =    -0.00480832   -0.00058613   -0.00000020
     atom   35 type  1   force =    -0.00462615   -0.00051521   -0.00000510
     atom   36 type  1   force =    -0.00462598   -0.00051486    0.00000532
     atom   37 type  1   force =     0.00072162   -0.00135941   -0.00012193
     atom   38 type  1   force =     0.00080440   -0.00151414   -0.00000002
     atom   39 type  1   force =     0.00072240   -0.00135879    0.00012168
     atom   40 type  1   force =     0.00104130   -0.00188903    0.00024452
     atom   41 type  1   force =     0.00061094   -0.00115357    0.00000013
     atom   42 type  1   force =     0.00104118   -0.00188735   -0.00024363
     atom   43 type  1   force =     0.00072460   -0.00124508    0.00000015
     atom   44 type  1   force =     0.00077193   -0.00123169    0.00000051
     atom   45 type  1   force =     0.00072489   -0.00124459    0.00000032
     atom   46 type  1   force =     0.00063889   -0.00130192   -0.00000338
     atom   47 type  1   force =     0.00058968   -0.00134426    0.00000026
     atom   48 type  1   force =     0.00063853   -0.00130254    0.00000422
     atom   49 type  1   force =     0.00101745    0.00102358    0.00017299
     atom   50 type  1   force =     0.00057081    0.00014247   -0.00000011
     atom   51 type  1   force =     0.00101791    0.00102288   -0.00017271
     atom   52 type  1   force =     0.00072615    0.00031500    0.00004313
     atom   53 type  1   force =     0.00077528    0.00027065   -0.00000060
     atom   54 type  1   force =     0.00072671    0.00031598   -0.00004254
     atom   55 type  1   force =     0.00053649    0.00033696    0.00007464
     atom   56 type  1   force =     0.00058757    0.00028636    0.00000051
     atom   57 type  1   force =     0.00053578    0.00033623   -0.00007478
     atom   58 type  1   force =     0.00083296    0.00055611   -0.00013345
     atom   59 type  1   force =     0.00080581    0.00043245    0.00000010
     atom   60 type  1   force =     0.00083231    0.00055647    0.00013369
     atom   61 type  1   force =    -0.00095897   -0.00049485   -0.00013218
     atom   62 type  1   force =    -0.00087056   -0.00053958    0.00000010
     atom   63 type  1   force =    -0.00095945   -0.00049597    0.00013290
     atom   64 type  1   force =    -0.00063940   -0.00035089    0.00007035
     atom   65 type  1   force =    -0.00062466   -0.00042340    0.00000014
     atom   66 type  1   force =    -0.00063946   -0.00035125   -0.00007000
     atom   67 type  1   force =    -0.00147345   -0.00043245    0.00017960
     atom   68 type  1   force =    -0.00049803   -0.00049143    0.00000026
     atom   69 type  1   force =    -0.00147236   -0.00043245   -0.00017969
     atom   70 type  1   force =    -0.00072546   -0.00052354    0.00003483
     atom   71 type  1   force =    -0.00071317   -0.00060164    0.00000038
     atom   72 type  1   force =    -0.00072524   -0.00052292   -0.00003473
     atom   73 type  2   force =    -0.00009799   -0.00038202   -0.00000002
     atom   74 type  2   force =    -0.00001186   -0.00010523   -0.00002566
     atom   75 type  2   force =    -0.00001180   -0.00010502    0.00002563
     atom   76 type  2   force =    -0.00027144    0.00026713   -0.00000002
     atom   77 type  2   force =    -0.00007071    0.00005288   -0.00002564
     atom   78 type  2   force =    -0.00007055    0.00005273    0.00002562
     atom   79 type  2   force =     0.00000310   -0.00000905    0.00000000
     atom   80 type  2   force =     0.00000354   -0.00000970   -0.00004031
     atom   81 type  2   force =     0.00000354   -0.00000969    0.00004029
     atom   82 type  2   force =     0.00037916    0.00009244   -0.00000002
     atom   83 type  2   force =     0.00009604    0.00002468   -0.00002550
     atom   84 type  2   force =     0.00009583    0.00002462    0.00002549
     atom   85 type  2   force =    -0.00027081   -0.00028296   -0.00000002
     atom   86 type  2   force =    -0.00007107   -0.00007178   -0.00002551
     atom   87 type  2   force =    -0.00007093   -0.00007163    0.00002549
     atom   88 type  2   force =     0.00000483   -0.00000829   -0.00000000
     atom   89 type  2   force =     0.00000503   -0.00000903   -0.00004030
     atom   90 type  2   force =     0.00000503   -0.00000903    0.00004029
     atom   91 type  2   force =     0.00037846   -0.00010707   -0.00000003
     atom   92 type  2   force =     0.00009535   -0.00004335   -0.00002567
     atom   93 type  2   force =     0.00009514   -0.00004330    0.00002565
     atom   94 type  2   force =    -0.00009693    0.00036795   -0.00000002
     atom   95 type  2   force =    -0.00001211    0.00008674   -0.00002562
     atom   96 type  2   force =    -0.00001205    0.00008654    0.00002560
     atom   97 type  2   force =     0.00000396   -0.00000866    0.00848657
     atom   98 type  2   force =     0.00000331   -0.00000718    0.00000012
     atom   99 type  2   force =     0.00000396   -0.00000865   -0.00848083
     atom  100 type  2   force =    -0.00001350    0.00002170   -0.00000236
     atom  101 type  2   force =     0.00000895   -0.00001727   -0.00000001
     atom  102 type  2   force =    -0.00001349    0.00002172    0.00000233
     atom  103 type  2   force =     0.00003559   -0.00000816   -0.00000262
     atom  104 type  2   force =    -0.00000773   -0.00000883   -0.00000001
     atom  105 type  2   force =     0.00003559   -0.00000817    0.00000261
     atom  106 type  2   force =    -0.00001201   -0.00003548   -0.00000266
     atom  107 type  2   force =     0.00001005    0.00000156   -0.00000001
     atom  108 type  2   force =    -0.00001202   -0.00003549    0.00000264
     atom  109 type  3   force =     0.00000000    0.00000000    0.00000000
     The Hubbard contrib.    to forces
     atom    1 type  1   force =     0.00000000    0.00000000    0.00000000
     atom    2 type  1   force =     0.00000000    0.00000000    0.00000000
     atom    3 type  1   force =     0.00000000    0.00000000    0.00000000
     atom    4 type  1   force =     0.00000000    0.00000000    0.00000000
     atom    5 type  1   force =     0.00000000    0.00000000    0.00000000
     atom    6 type  1   force =     0.00000000    0.00000000    0.00000000
     atom    7 type  1   force =     0.00000000    0.00000000    0.00000000
     atom    8 type  1   force =     0.00000000    0.00000000    0.00000000
     atom    9 type  1   force =     0.00000000    0.00000000    0.00000000
     atom   10 type  1   force =     0.00000000    0.00000000    0.00000000
     atom   11 type  1   force =     0.00000000    0.00000000    0.00000000
     atom   12 type  1   force =     0.00000000    0.00000000    0.00000000
     atom   13 type  1   force =     0.00000000    0.00000000    0.00000000
     atom   14 type  1   force =     0.00000000    0.00000000    0.00000000
     atom   15 type  1   force =     0.00000000    0.00000000    0.00000000
     atom   16 type  1   force =     0.00000000    0.00000000    0.00000000
     atom   17 type  1   force =     0.00000000    0.00000000    0.00000000
     atom   18 type  1   force =     0.00000000    0.00000000    0.00000000
     atom   19 type  1   force =     0.00000000    0.00000000    0.00000000
     atom   20 type  1   force =     0.00000000    0.00000000    0.00000000
     atom   21 type  1   force =     0.00000000    0.00000000    0.00000000
     atom   22 type  1   force =     0.00000000    0.00000000    0.00000000
     atom   23 type  1   force =     0.00000000    0.00000000    0.00000000
     atom   24 type  1   force =     0.00000000    0.00000000    0.00000000
     atom   25 type  1   force =     0.00000000    0.00000000    0.00000000
     atom   26 type  1   force =     0.00000000    0.00000000    0.00000000
     atom   27 type  1   force =     0.00000000    0.00000000    0.00000000
     atom   28 type  1   force =     0.00000000    0.00000000    0.00000000
     atom   29 type  1   force =     0.00000000    0.00000000    0.00000000
     atom   30 type  1   force =     0.00000000    0.00000000    0.00000000
     atom   31 type  1   force =     0.00000000    0.00000000    0.00000000
     atom   32 type  1   force =     0.00000000    0.00000000    0.00000000
     atom   33 type  1   force =     0.00000000    0.00000000    0.00000000
     atom   34 type  1   force =     0.00000000    0.00000000    0.00000000
     atom   35 type  1   force =     0.00000000    0.00000000    0.00000000
     atom   36 type  1   force =     0.00000000    0.00000000    0.00000000
     atom   37 type  1   force =     0.00000000    0.00000000    0.00000000
     atom   38 type  1   force =     0.00000000    0.00000000    0.00000000
     atom   39 type  1   force =     0.00000000    0.00000000    0.00000000
     atom   40 type  1   force =     0.00000000    0.00000000    0.00000000
     atom   41 type  1   force =     0.00000000    0.00000000    0.00000000
     atom   42 type  1   force =     0.00000000    0.00000000    0.00000000
     atom   43 type  1   force =     0.00000000    0.00000000    0.00000000
     atom   44 type  1   force =     0.00000000    0.00000000    0.00000000
     atom   45 type  1   force =     0.00000000    0.00000000    0.00000000
     atom   46 type  1   force =     0.00000000    0.00000000    0.00000000
     atom   47 type  1   force =     0.00000000    0.00000000    0.00000000
     atom   48 type  1   force =     0.00000000    0.00000000    0.00000000
     atom   49 type  1   force =     0.00000000    0.00000000    0.00000000
     atom   50 type  1   force =     0.00000000    0.00000000    0.00000000
     atom   51 type  1   force =     0.00000000    0.00000000    0.00000000
     atom   52 type  1   force =     0.00000000    0.00000000    0.00000000
     atom   53 type  1   force =     0.00000000    0.00000000    0.00000000
     atom   54 type  1   force =     0.00000000    0.00000000    0.00000000
     atom   55 type  1   force =     0.00000000    0.00000000    0.00000000
     atom   56 type  1   force =     0.00000000    0.00000000    0.00000000
     atom   57 type  1   force =     0.00000000    0.00000000    0.00000000
     atom   58 type  1   force =     0.00000000    0.00000000    0.00000000
     atom   59 type  1   force =     0.00000000    0.00000000    0.00000000
     atom   60 type  1   force =     0.00000000    0.00000000    0.00000000
     atom   61 type  1   force =     0.00000000    0.00000000    0.00000000
     atom   62 type  1   force =     0.00000000    0.00000000    0.00000000
     atom   63 type  1   force =     0.00000000    0.00000000    0.00000000
     atom   64 type  1   force =     0.00000000    0.00000000    0.00000000
     atom   65 type  1   force =     0.00000000    0.00000000    0.00000000
     atom   66 type  1   force =     0.00000000    0.00000000    0.00000000
     atom   67 type  1   force =     0.00000000    0.00000000    0.00000000
     atom   68 type  1   force =     0.00000000    0.00000000    0.00000000
     atom   69 type  1   force =     0.00000000    0.00000000    0.00000000
     atom   70 type  1   force =     0.00000000    0.00000000    0.00000000
     atom   71 type  1   force =     0.00000000    0.00000000    0.00000000
     atom   72 type  1   force =     0.00000000    0.00000000    0.00000000
     atom   73 type  2   force =     0.00000000    0.00000000    0.00000000
     atom   74 type  2   force =     0.00000000    0.00000000    0.00000000
     atom   75 type  2   force =     0.00000000    0.00000000    0.00000000
     atom   76 type  2   force =     0.00000000    0.00000000    0.00000000
     atom   77 type  2   force =     0.00000000    0.00000000    0.00000000
     atom   78 type  2   force =     0.00000000    0.00000000    0.00000000
     atom   79 type  2   force =     0.00000000    0.00000000    0.00000000
     atom   80 type  2   force =     0.00000000    0.00000000    0.00000000
     atom   81 type  2   force =     0.00000000    0.00000000    0.00000000
     atom   82 type  2   force =     0.00000000    0.00000000    0.00000000
     atom   83 type  2   force =     0.00000000    0.00000000    0.00000000
     atom   84 type  2   force =     0.00000000    0.00000000    0.00000000
     atom   85 type  2   force =     0.00000000    0.00000000    0.00000000
     atom   86 type  2   force =     0.00000000    0.00000000    0.00000000
     atom   87 type  2   force =     0.00000000    0.00000000    0.00000000
     atom   88 type  2   force =     0.00000000    0.00000000    0.00000000
     atom   89 type  2   force =     0.00000000    0.00000000    0.00000000
     atom   90 type  2   force =     0.00000000    0.00000000    0.00000000
     atom   91 type  2   force =     0.00000000    0.00000000    0.00000000
     atom   92 type  2   force =     0.00000000    0.00000000    0.00000000
     atom   93 type  2   force =     0.00000000    0.00000000    0.00000000
     atom   94 type  2   force =     0.00000000    0.00000000    0.00000000
     atom   95 type  2   force =     0.00000000    0.00000000    0.00000000
     atom   96 type  2   force =     0.00000000    0.00000000    0.00000000
     atom   97 type  2   force =     0.00000000    0.00000000    0.00000000
     atom   98 type  2   force =     0.00000000    0.00000000    0.00000000
     atom   99 type  2   force =     0.00000000    0.00000000    0.00000000
     atom  100 type  2   force =     0.00000000    0.00000000    0.00000000
     atom  101 type  2   force =     0.00000000    0.00000000    0.00000000
     atom  102 type  2   force =     0.00000000    0.00000000    0.00000000
     atom  103 type  2   force =     0.00000000    0.00000000    0.00000000
     atom  104 type  2   force =     0.00000000    0.00000000    0.00000000
     atom  105 type  2   force =     0.00000000    0.00000000    0.00000000
     atom  106 type  2   force =     0.00000000    0.00000000    0.00000000
     atom  107 type  2   force =     0.00000000    0.00000000    0.00000000
     atom  108 type  2   force =     0.00000000    0.00000000    0.00000000
     atom  109 type  3   force =     0.00000000    0.00000000    0.00000000
     The SCF correction term to forces
     atom    1 type  1   force =    -0.00010644    0.00017518   -0.00000114
     atom    2 type  1   force =    -0.00002000    0.00002219    0.00016317
     atom    3 type  1   force =    -0.00001920    0.00002078   -0.00016176
     atom    4 type  1   force =     0.00003338   -0.00006272   -0.00000002
     atom    5 type  1   force =    -0.00003704    0.00005858    0.00010956
     atom    6 type  1   force =    -0.00003704    0.00005863   -0.00010951
     atom    7 type  1   force =     0.00001421    0.00000839   -0.00000036
     atom    8 type  1   force =     0.00000043   -0.00001761    0.00005675
     atom    9 type  1   force =     0.00000034   -0.00001753   -0.00005626
     atom   10 type  1   force =    -0.00001319   -0.00000443   -0.00000036
     atom   11 type  1   force =     0.00001697   -0.00000373    0.00005689
     atom   12 type  1   force =     0.00001691   -0.00000350   -0.00005639
     atom   13 type  1   force =     0.00008621    0.00010774   -0.00000009
     atom   14 type  1   force =     0.00002824   -0.00000304    0.00009670
     atom   15 type  1   force =     0.00002835   -0.00000293   -0.00009659
     atom   16 type  1   force =     0.00002256   -0.00001779   -0.00000039
     atom   17 type  1   force =     0.00000455    0.00000262    0.00006036
     atom   18 type  1   force =     0.00000450    0.00000253   -0.00005984
     atom   19 type  1   force =    -0.00004874    0.00000520   -0.00000019
     atom   20 type  1   force =    -0.00003099    0.00002088    0.00005765
     atom   21 type  1   force =    -0.00003118    0.00002067   -0.00005733
     atom   22 type  1   force =    -0.00009684   -0.00021282   -0.00000123
     atom   23 type  1   force =    -0.00000634   -0.00008879    0.00017809
     atom   24 type  1   force =    -0.00000563   -0.00008751   -0.00017659
     atom   25 type  1   force =     0.00023036   -0.00002785   -0.00000122
     atom   26 type  1   force =     0.00007559   -0.00004580    0.00017680
     atom   27 type  1   force =     0.00007412   -0.00004584   -0.00017531
     atom   28 type  1   force =     0.00001741    0.00004299   -0.00000021
     atom   29 type  1   force =    -0.00000564    0.00003567    0.00005739
     atom   30 type  1   force =    -0.00000536    0.00003573   -0.00005704
     atom   31 type  1   force =    -0.00013074   -0.00002341   -0.00000014
     atom   32 type  1   force =    -0.00000452   -0.00002898    0.00009779
     atom   33 type  1   force =    -0.00000468   -0.00002909   -0.00009763
     atom   34 type  1   force =     0.00000527   -0.00002608   -0.00000032
     atom   35 type  1   force =    -0.00000293    0.00000116    0.00006011
     atom   36 type  1   force =    -0.00000281    0.00000118   -0.00005966
     atom   37 type  1   force =    -0.00007902    0.00012916    0.00008321
     atom   38 type  1   force =    -0.00000962    0.00000752    0.00000061
     atom   39 type  1   force =    -0.00007828    0.00012791   -0.00008397
     atom   40 type  1   force =     0.00006875   -0.00012373    0.00024529
     atom   41 type  1   force =     0.00001802   -0.00003792    0.00000083
     atom   42 type  1   force =     0.00006771   -0.00012187   -0.00024596
     atom   43 type  1   force =     0.00002930    0.00005228    0.00004299
     atom   44 type  1   force =    -0.00005674    0.00003990    0.00000032
     atom   45 type  1   force =     0.00003023    0.00005145   -0.00004347
     atom   46 type  1   force =    -0.00005472    0.00000178    0.00004382
     atom   47 type  1   force =    -0.00000006    0.00007106    0.00000038
     atom   48 type  1   force =    -0.00005446    0.00000061   -0.00004435
     atom   49 type  1   force =     0.00009805    0.00012426    0.00022447
     atom   50 type  1   force =     0.00005877    0.00003163    0.00000081
     atom   51 type  1   force =     0.00009708    0.00012244   -0.00022512
     atom   52 type  1   force =     0.00003466    0.00001523    0.00005008
     atom   53 type  1   force =    -0.00006200    0.00003209    0.00000027
     atom   54 type  1   force =     0.00003565    0.00001620   -0.00005050
     atom   55 type  1   force =    -0.00006023    0.00000240    0.00004018
     atom   56 type  1   force =    -0.00000948   -0.00006305    0.00000028
     atom   57 type  1   force =    -0.00006011    0.00000350   -0.00004062
     atom   58 type  1   force =    -0.00006040   -0.00014381    0.00010110
     atom   59 type  1   force =     0.00002617   -0.00000878    0.00000077
     atom   60 type  1   force =    -0.00005978   -0.00014259   -0.00010202
     atom   61 type  1   force =     0.00015848   -0.00002414    0.00009965
     atom   62 type  1   force =     0.00000019   -0.00003244    0.00000078
     atom   63 type  1   force =     0.00015715   -0.00002417   -0.00010058
     atom   64 type  1   force =     0.00003312    0.00005646    0.00003962
     atom   65 type  1   force =     0.00006426   -0.00001924    0.00000027
     atom   66 type  1   force =     0.00003206    0.00005693   -0.00004005
     atom   67 type  1   force =    -0.00015639   -0.00002608    0.00022626
     atom   68 type  1   force =    -0.00005637   -0.00003950    0.00000085
     atom   69 type  1   force =    -0.00015438   -0.00002621   -0.00022695
     atom   70 type  1   force =    -0.00002762   -0.00002383    0.00005024
     atom   71 type  1   force =     0.00000637    0.00006869    0.00000025
     atom   72 type  1   force =    -0.00002891   -0.00002421   -0.00005064
     atom   73 type  2   force =    -0.00000555    0.00006398   -0.00000003
     atom   74 type  2   force =     0.00002018    0.00000929    0.00002767
     atom   75 type  2   force =     0.00002000    0.00000893   -0.00002768
     atom   76 type  2   force =     0.00006135   -0.00001866   -0.00000006
     atom   77 type  2   force =    -0.00000245   -0.00001241    0.00003250
     atom   78 type  2   force =    -0.00000264   -0.00001202   -0.00003248
     atom   79 type  2   force =    -0.00000809    0.00000393   -0.00000011
     atom   80 type  2   force =    -0.00000801    0.00000596    0.00001728
     atom   81 type  2   force =    -0.00000804    0.00000595   -0.00001711
     atom   82 type  2   force =    -0.00005090   -0.00004440   -0.00000007
     atom   83 type  2   force =    -0.00001191    0.00000408    0.00003025
     atom   84 type  2   force =    -0.00001151    0.00000407   -0.00003022
     atom   85 type  2   force =     0.00006448    0.00002204   -0.00000006
     atom   86 type  2   force =     0.00000335    0.00001268    0.00002984
     atom   87 type  2   force =     0.00000316    0.00001230   -0.00002982
     atom   88 type  2   force =     0.00000217    0.00000997   -0.00000012
     atom   89 type  2   force =     0.00000047    0.00001119    0.00001730
     atom   90 type  2   force =     0.00000050    0.00001123   -0.00001712
     atom   91 type  2   force =    -0.00005273    0.00003630   -0.00000003
     atom   92 type  2   force =    -0.00001833   -0.00001366    0.00002790
     atom   93 type  2   force =    -0.00001793   -0.00001369   -0.00002791
     atom   94 type  2   force =    -0.00001487   -0.00006229   -0.00000005
     atom   95 type  2   force =     0.00001132   -0.00000358    0.00003266
     atom   96 type  2   force =     0.00001109   -0.00000320   -0.00003265
     atom   97 type  2   force =     0.00000476   -0.00001146    0.00009966
     atom   98 type  2   force =     0.00000725   -0.00001671    0.00000106
     atom   99 type  2   force =     0.00000477   -0.00001148   -0.00010051
     atom  100 type  2   force =    -0.00000059   -0.00000116    0.00001295
     atom  101 type  2   force =    -0.00001620    0.00002573   -0.00000003
     atom  102 type  2   force =    -0.00000055   -0.00000124   -0.00001301
     atom  103 type  2   force =    -0.00001071   -0.00000757    0.00001183
     atom  104 type  2   force =     0.00001512   -0.00000870    0.00000003
     atom  105 type  2   force =    -0.00001082   -0.00000758   -0.00001196
     atom  106 type  2   force =     0.00001178    0.00000697    0.00001173
     atom  107 type  2   force =    -0.00000004   -0.00001554    0.00000001
     atom  108 type  2   force =     0.00001183    0.00000708   -0.00001184
     atom  109 type  3   force =     0.00000072   -0.00000185   -0.00000009

     Total force =     0.006800     Total SCF correction =     0.001166
     SCF correction compared to forces is large: reduce conv_thr to get better values


     Computing stress (Cartesian axis) and pressure


     negative rho (up, down):  0.000E+00 1.151E-03
          total   stress  (Ry/bohr**3)                   (kbar)     P=      -59.20
  -0.00044247   0.00000000   0.00000000          -65.09        0.00        0.00
   0.00000000  -0.00044247   0.00000000            0.00      -65.09        0.00
   0.00000000   0.00000000  -0.00032233            0.00        0.00      -47.42

     kinetic stress (kbar)  56394.38      0.00      0.00
                                0.00  56394.39      0.00
                                0.00      0.00  56296.65

     local   stress (kbar)  37608.01     -0.05      0.00
                               -0.05  37608.05     -0.00
                                0.00     -0.00  38352.98

     nonloc. stress (kbar) -41074.75      0.00      0.00
                                0.00 -41074.76      0.00
                                0.00      0.00 -40900.12

     hartree stress (kbar)  32438.09     -0.00      0.00
                               -0.00  32438.09     -0.00
                                0.00     -0.00  32757.62

     exc-cor stress (kbar)  -1896.49      0.00     -0.00
                                0.00  -1896.49      0.00
                               -0.00      0.00  -1901.48

     corecor stress (kbar) -11748.77     -0.00      0.00
                               -0.00 -11748.77     -0.00
                                0.00     -0.00 -11747.43

     ewald   stress (kbar) -71785.60     -0.01      0.00
                               -0.01 -71785.58     -0.00
                                0.00     -0.00 -72905.63

     hubbard stress (kbar)      0.00      0.00      0.00
                                0.00      0.00      0.00
                                0.00      0.00      0.00

     DFT-D   stress (kbar)      0.00      0.00      0.00
                                0.00      0.00      0.00
                                0.00      0.00      0.00

     XDM     stress (kbar)      0.00      0.00      0.00
                                0.00      0.00      0.00
                                0.00      0.00      0.00

     dft-nl  stress (kbar)      0.00      0.00      0.00
                                0.00      0.00      0.00
                                0.00      0.00      0.00

     TS-vdW  stress (kbar)      0.00      0.00      0.00
                                0.00      0.00      0.00
                                0.00      0.00      0.00

     MDB     stress (kbar)      0.00      0.00      0.00
                                0.00      0.00      0.00
                                0.00      0.00      0.00

     3D-RISM stress (kbar)      0.00      0.00      0.00
                                0.00      0.00      0.00
                                0.00      0.00      0.00


     Writing all to output data dir /scratch/jaz/Fe2P/scf1.save/ :
     XML data file, charge density, pseudopotentials, collected wavefunctions

     init_run     :    179.99s CPU    114.78s WALL (       1 calls)
     electrons    :  11214.51s CPU   6036.02s WALL (       1 calls)
     forces       :     88.46s CPU     50.08s WALL (       1 calls)
     stress       :    286.75s CPU    157.32s WALL (       1 calls)

     Called by init_run:
     wfcinit      :    172.22s CPU     91.77s WALL (       1 calls)
     wfcinit:atom :      0.27s CPU      0.37s WALL (      13 calls)
     wfcinit:wfcr :    169.77s CPU     88.87s WALL (      13 calls)
     potinit      :      3.22s CPU     12.53s WALL (       1 calls)
     hinit0       :      1.53s CPU      5.31s WALL (       1 calls)

     Called by electrons:
     c_bands      :  10137.18s CPU   5408.27s WALL (      25 calls)
     sum_band     :   1012.49s CPU    548.81s WALL (      25 calls)
     v_of_rho     :     14.77s CPU     43.50s WALL (      26 calls)
     v_h          :      2.84s CPU      6.15s WALL (      26 calls)
     v_xc         :     14.25s CPU     40.59s WALL (      28 calls)
     newd         :     17.92s CPU     17.31s WALL (      26 calls)
     PAW_pot      :     25.44s CPU     16.31s WALL (      26 calls)
     mix_rho      :      7.86s CPU      7.83s WALL (      25 calls)

     Called by c_bands:
     init_us_2    :     46.15s CPU     42.61s WALL (     689 calls)
     cegterg      :   9766.09s CPU   5036.50s WALL (     325 calls)

     Called by sum_band:
     sum_band:wei :      0.16s CPU      0.16s WALL (      25 calls)
     sum_band:loo :    984.40s CPU    518.27s WALL (      25 calls)
     sum_band:buf :      6.02s CPU      6.12s WALL (     325 calls)
     sum_band:ini :     18.25s CPU     16.51s WALL (     325 calls)
     sum_band:cal :    493.53s CPU    257.25s WALL (     325 calls)
     sum_band:bec :      3.96s CPU      4.00s WALL (     325 calls)
     addusdens    :     24.62s CPU     19.73s WALL (      25 calls)
                                        0.00s GPU  (      25 calls)
     addusd:skk   :      1.00s CPU      0.87s WALL (      75 calls)
                                        0.00s GPU  (      75 calls)

     Called by *egterg:
     cdiaghg      :    855.01s CPU    467.75s WALL (    1351 calls)
     cegterg:over :    937.92s CPU    475.77s WALL (    1026 calls)
     cegterg:upda :    656.56s CPU    339.53s WALL (    1026 calls)
     cegterg:last :   1424.08s CPU    725.03s WALL (     601 calls)
     cdiaghg:chol :     40.88s CPU     29.37s WALL (    1351 calls)
     cdiaghg:inve :     33.51s CPU     32.99s WALL (    1351 calls)
     cdiaghg:para :    132.55s CPU     70.79s WALL (    2702 calls)
     h_psi        :   4563.76s CPU   2340.21s WALL (    1364 calls)
     s_psi        :   1143.88s CPU    578.43s WALL (    1364 calls)
     g_psi        :      8.52s CPU      5.11s WALL (    1026 calls)

     Called by h_psi:
     h_psi:calbec :   1201.44s CPU    627.87s WALL (    1364 calls)
     vloc_psi     :   2190.79s CPU   1110.94s WALL (    1364 calls)
                                        0.00s GPU  (    1364 calls)
     add_vuspsi   :   1150.77s CPU    582.60s WALL (    1364 calls)

     General routines
     calbec       :   2022.84s CPU   1056.42s WALL (    1910 calls)
     fft          :     19.63s CPU     63.17s WALL (     688 calls)
     ffts         :      5.73s CPU      8.57s WALL (     606 calls)
     fftw         :   2557.94s CPU   1296.70s WALL ( 1504642 calls)
     interpolate  :      2.19s CPU      6.17s WALL (      52 calls)

     Parallel routines

     PAW routines
     PAW_pot      :     25.44s CPU     16.31s WALL (      26 calls)
     PAW_symme    :      0.07s CPU      0.05s WALL (      51 calls)

     PWSCF        :  11853.32s CPU   6474.18s WALL


   This run was terminated on:  23:37:52   7Aug2026            

=------------------------------------------------------------------------------=
   JOB DONE.
=------------------------------------------------------------------------------=
