
     Program PWSCF v.6.3MaX starts on 17Dec2019 at  8: 5:16 

     This program is part of the open-source Quantum ESPRESSO suite
     for quantum simulation of materials; please cite
         "P. Giannozzi et al., J. Phys.:Condens. Matter 21 395502 (2009);
         "P. Giannozzi et al., J. Phys.:Condens. Matter 29 465901 (2017);
          URL http://www.quantum-espresso.org", 
     in publications or presentations arising from this work. More details at
     http://www.quantum-espresso.org/quote

     Parallel version (MPI), running on   128 processors

     MPI processes distributed on     2 nodes
     K-points division:     npool     =       2
     R & G space division:  proc/nbgrp/npool/nimage =      64
     Waiting for input...
     Reading input from standard input
Warning: card &IONS ignored
Warning: card                 ION_DYNAMICS = 'BFGS', ignored
Warning: card / ignored
Warning: card &CELL ignored
Warning: card                CELL_DYNAMICS = 'BFGS', ignored
Warning: card                  CELL_FACTOR = 1.0, ignored
Warning: card                        PRESS = 0.0 ignored
Warning: card / ignored

     Current dimensions of program PWSCF are:
     Max number of different atomic species (ntypx) = 10
     Max number of k-points (npk) =  40000
     Max angular momentum in pseudopotentials (lmaxx) =  3
               file Fe.pbe-spn-kjpaw_psl.0.2.1.UPF: wavefunction(s)  3D renormalized
               file P.pbe-n-kjpaw_psl.1.0.0.UPF: wavefunction(s)  3S 3P renormalized
               file H.pbe-kjpaw_psl.0.1.UPF: wavefunction(s)  1S renormalized

     Subspace diagonalization in iterative solution of the eigenvalue problem:
     one sub-group per band group will be used
     ELPA distributed-memory algorithm (size of sub-group:  8*  8 procs)

 
     Parallelization info
     --------------------
     sticks:   dense  smooth     PW     G-vecs:    dense   smooth      PW
     Min         424     170     44                49696    12572    1692
     Max         425     171     45                49703    12575    1699
     Sum       27175   10891   2869              3180745   804717  108573
 


     bravais-lattice index     =            0
     lattice parameter (alat)  =      22.2118  a.u.
     unit-cell volume          =    8325.2900 (a.u.)^3
     number of atoms/cell      =          109
     number of atomic types    =            3
     number of electrons       =      1333.00
     number of Kohn-Sham states=          800
     kinetic-energy cutoff     =      80.0000  Ry
     charge density cutoff     =     800.0000  Ry
     convergence threshold     =      1.0E-07
     mixing beta               =       0.2000
     number of iterations used =            8  local-TF  mixing
     Exchange-correlation      = SLA PW PBX PBC ( 1  4  3  4 0 0)

     celldm(1)=  22.211841  celldm(2)=   0.000000  celldm(3)=   0.000000
     celldm(4)=   0.000000  celldm(5)=   0.000000  celldm(6)=   0.000000

     crystal axes: (cart. coord. in units of alat)
               a(1) = (   1.000000   0.000000   0.000000 )  
               a(2) = (  -0.500000   0.866025   0.000000 )  
               a(3) = (   0.000000   0.000000   0.877233 )  

     reciprocal axes: (cart. coord. in units 2 pi/alat)
               b(1) = (  1.000000  0.577350  0.000000 )  
               b(2) = (  0.000000  1.154701  0.000000 )  
               b(3) = (  0.000000  0.000000  1.139948 )  


     PseudoPot. # 1 for Fe read from file:
     /marconi/home/userexternal/misah000/pseudo/Fe.pbe-spn-kjpaw_psl.0.2.1.UPF
     MD5 check sum: c3c4b6e1e53c08f543408af48e50e085
     Pseudo is Projector augmented-wave + core cor, Zval = 16.0
     Generated using "atomic" code by A. Dal Corso v.5.0.99 svn rev. 10869
     Shape of augmentation charge: PSQ
     Using radial grid of 1191 points,  6 beta functions with: 
                l(1) =   0
                l(2) =   0
                l(3) =   1
                l(4) =   1
                l(5) =   2
                l(6) =   2
     Q(r) pseudized with 0 coefficients 


     PseudoPot. # 2 for P  read from file:
     /marconi/home/userexternal/misah000/pseudo/P.pbe-n-kjpaw_psl.1.0.0.UPF
     MD5 check sum: 06b8cad1975795032ee26009bb7624c7
     Pseudo is Projector augmented-wave + core cor, Zval =  5.0
     Generated using "atomic" code by A. Dal Corso v.6.3
     Shape of augmentation charge: PSQ
     Using radial grid of 1147 points,  6 beta functions with: 
                l(1) =   0
                l(2) =   0
                l(3) =   1
                l(4) =   1
                l(5) =   2
                l(6) =   2
     Q(r) pseudized with 0 coefficients 


     PseudoPot. # 3 for H  read from file:
     /marconi/home/userexternal/misah000/pseudo/H.pbe-kjpaw_psl.0.1.UPF
     MD5 check sum: 646e9abdd13bcc7bdf63c3fce1a31fdf
     Pseudo is Projector augmented-wave, Zval =  1.0
     Generated using "atomic" code by A. Dal Corso v.5.0.2 svn rev. 9415
     Shape of augmentation charge: PSQ
     Using radial grid of  929 points,  2 beta functions with: 
                l(1) =   0
                l(2) =   0
     Q(r) pseudized with 0 coefficients 


     atomic species   valence    mass     pseudopotential
        Fe            16.00    55.84500     Fe( 1.00)
        P              5.00    30.97400     P ( 1.00)
        H              1.00     1.00000     H ( 1.00)

     Starting magnetic structure 
     atomic species   magnetization
        Fe           0.500
        P            0.000
        H            0.000

      2 Sym. Ops. (no inversion) found


                                    s                        frac. trans.

      isym =  1     identity                                     

 cryst.   s( 1) = (     1          0          0      )
                  (     0          1          0      )
                  (     0          0          1      )

 cart.    s( 1) = (  1.0000000  0.0000000  0.0000000 )
                  (  0.0000000  1.0000000  0.0000000 )
                  (  0.0000000  0.0000000  1.0000000 )


      isym =  2     inv. 180 deg rotation - cryst. axis [1,-1,0] 

 cryst.   s( 2) = (     0          1          0      )
                  (     1          0          0      )
                  (     0          0          1      )

 cart.    s( 2) = ( -0.5000000  0.8660255  0.0000000 )
                  (  0.8660254  0.5000000  0.0000000 )
                  (  0.0000000  0.0000000  1.0000000 )


   Cartesian axes

     site n.     atom                  positions (alat units)
         1           Fe  tau(   1) = (  -0.1370794  -0.0150337  -0.0000054  )
         2           Fe  tau(   2) = (   0.3618880   0.6268058  -0.0000051  )
         3           Fe  tau(   3) = (   0.0555250  -0.1262336  -0.0000054  )
         4           Fe  tau(   4) = (  -0.1387684  -0.0166200   0.2929363  )
         5           Fe  tau(   5) = (   0.3612102   0.6256351   0.2937213  )
         6           Fe  tau(   6) = (   0.0549904  -0.1284864   0.2929345  )
         7           Fe  tau(   7) = (  -0.1387683  -0.0166198   0.5842869  )
         8           Fe  tau(   8) = (   0.3612104   0.6256353   0.5835021  )
         9           Fe  tau(   9) = (   0.0549905  -0.1284862   0.5842887  )
        10           Fe  tau(  10) = (  -0.3888142   0.4175197  -0.0000052  )
        11           Fe  tau(  11) = (   0.1118266   0.1936845  -0.0000052  )
        12           Fe  tau(  12) = (   0.5559933  -0.1279625  -0.0000052  )
        13           Fe  tau(  13) = (  -0.3883243   0.4166768   0.2922669  )
        14           Fe  tau(  14) = (   0.1118735   0.1937714   0.2936500  )
        15           Fe  tau(  15) = (   0.5550145  -0.1279602   0.2922669  )
        16           Fe  tau(  16) = (  -0.3883244   0.4166768   0.5849560  )
        17           Fe  tau(  17) = (   0.1118736   0.1937715   0.5835728  )
        18           Fe  tau(  18) = (   0.5550146  -0.1279602   0.5849559  )
        19           Fe  tau(  19) = (   0.3638429  -0.0159016  -0.0000053  )
        20           Fe  tau(  20) = (   0.6118721   0.1941078  -0.0000052  )
        21           Fe  tau(  21) = (   0.3053039   0.3053603  -0.0000052  )
        22           Fe  tau(  22) = (  -0.1956917   0.3071447  -0.0000053  )
        23           Fe  tau(  23) = (  -0.1378297   0.6269499  -0.0000052  )
        24           Fe  tau(  24) = (   0.1117985   0.4170798  -0.0000052  )
        25           Fe  tau(  25) = (   0.3621223  -0.0163050   0.2924643  )
        26           Fe  tau(  26) = (   0.6117517   0.1934816   0.2924420  )
        27           Fe  tau(  27) = (   0.3050562   0.3051718   0.2922770  )
        28           Fe  tau(  28) = (   0.3621224  -0.0163049   0.5847585  )
        29           Fe  tau(  29) = (   0.6117517   0.1934816   0.5847807  )
        30           Fe  tau(  30) = (   0.3050562   0.3051718   0.5849458  )
        31           Fe  tau(  31) = (  -0.1951821   0.3054547   0.5847589  )
        32           Fe  tau(  32) = (  -0.1383164   0.6265332   0.5847805  )
        33           Fe  tau(  33) = (   0.1117576   0.4167723   0.5849464  )
        34           Fe  tau(  34) = (  -0.1951820   0.3054545   0.2924639  )
        35           Fe  tau(  35) = (  -0.1383164   0.6265332   0.2924422  )
        36           Fe  tau(  36) = (   0.1117575   0.4167723   0.2922764  )
        37           Fe  tau(  37) = (  -0.2219205   0.1298740   0.1461057  )
        38           Fe  tau(  38) = (   0.2777665   0.4811059   0.1465180  )
        39           Fe  tau(  39) = (   0.2234373  -0.1272515   0.1461059  )
        40           Fe  tau(  40) = (  -0.2219208   0.1298741   0.7311170  )
        41           Fe  tau(  41) = (   0.2777665   0.4811059   0.7307049  )
        42           Fe  tau(  42) = (   0.2234375  -0.1272517   0.7311169  )
        43           Fe  tau(  43) = (  -0.2226075   0.1292740   0.4386115  )
        44           Fe  tau(  44) = (   0.2775593   0.4807480   0.4386115  )
        45           Fe  tau(  45) = (   0.2232569  -0.1281463   0.4386115  )
        46           Fe  tau(  46) = (  -0.4718216   0.5625971   0.1461973  )
        47           Fe  tau(  47) = (   0.0282730   0.0489732   0.1530573  )
        48           Fe  tau(  48) = (   0.7231363  -0.1273100   0.1461969  )
        49           Fe  tau(  49) = (  -0.4718216   0.5625971   0.7310256  )
        50           Fe  tau(  50) = (   0.0282733   0.0489736   0.7241659  )
        51           Fe  tau(  51) = (   0.7231362  -0.1273101   0.7310261  )
        52           Fe  tau(  52) = (  -0.4720580   0.5611638   0.4386116  )
        53           Fe  tau(  53) = (   0.0275157   0.0476588   0.4386116  )
        54           Fe  tau(  54) = (   0.7220103  -0.1282328   0.4386115  )
        55           Fe  tau(  55) = (   0.2784301   0.1296594   0.1472184  )
        56           Fe  tau(  56) = (   0.5285265   0.0482279   0.1463593  )
        57           Fe  tau(  57) = (   0.4727616   0.3053167   0.1461365  )
        58           Fe  tau(  58) = (   0.2784304   0.1296597   0.7300043  )
        59           Fe  tau(  59) = (   0.5285266   0.0482279   0.7308635  )
        60           Fe  tau(  60) = (   0.4727615   0.3053167   0.7310863  )
        61           Fe  tau(  61) = (  -0.0269254   0.3059557   0.7300052  )
        62           Fe  tau(  62) = (  -0.2224958   0.4818297   0.7308632  )
        63           Fe  tau(  63) = (   0.0280315   0.5620812   0.7310861  )
        64           Fe  tau(  64) = (  -0.0269254   0.3059553   0.1472174  )
        65           Fe  tau(  65) = (  -0.2224957   0.4818296   0.1463596  )
        66           Fe  tau(  66) = (   0.0280314   0.5620812   0.1461367  )
        67           Fe  tau(  67) = (   0.2781410   0.1293602   0.4386114  )
        68           Fe  tau(  68) = (   0.5278329   0.0481573   0.4386114  )
        69           Fe  tau(  69) = (   0.4727738   0.3050207   0.4386114  )
        70           Fe  tau(  70) = (  -0.0270421   0.3055577   0.4386114  )
        71           Fe  tau(  71) = (  -0.2222117   0.4811957   0.4386114  )
        72           Fe  tau(  72) = (   0.0277682   0.5619442   0.4386114  )
        73           P   tau(  73) = (  -0.0743862   0.1654070  -0.0000055  )
        74           P   tau(  74) = (   0.1770061   0.5938973  -0.0000052  )
        75           P   tau(  75) = (  -0.3231724   0.5941155  -0.0000052  )
        76           P   tau(  76) = (   0.1804410   0.0182802  -0.0000055  )
        77           P   tau(  77) = (   0.4258290   0.4502397  -0.0000052  )
        78           P   tau(  78) = (   0.6761123   0.0171807  -0.0000052  )
        79           P   tau(  79) = (  -0.0746285   0.1610978   0.2934501  )
        80           P   tau(  80) = (   0.1759071   0.5938238   0.2923102  )
        81           P   tau(  81) = (  -0.3238085   0.5936616   0.2923864  )
        82           P   tau(  82) = (  -0.0746286   0.1610981   0.5837727  )
        83           P   tau(  83) = (   0.1759072   0.5938238   0.5849127  )
        84           P   tau(  84) = (  -0.3238085   0.5936617   0.5848365  )
        85           P   tau(  85) = (   0.1768286   0.0159193   0.5837734  )
        86           P   tau(  86) = (   0.4263125   0.4492523   0.5849126  )
        87           P   tau(  87) = (   0.6760297   0.0164047   0.5848359  )
        88           P   tau(  88) = (   0.1768284   0.0159192   0.2934494  )
        89           P   tau(  89) = (   0.4263126   0.4492522   0.2923103  )
        90           P   tau(  90) = (   0.6760297   0.0164047   0.2923869  )
        91           P   tau(  91) = (   0.4265296   0.1612580  -0.0000053  )
        92           P   tau(  92) = (  -0.0736105   0.4500129  -0.0000053  )
        93           P   tau(  93) = (   0.4263306   0.1609065   0.2923986  )
        94           P   tau(  94) = (   0.4263307   0.1609066   0.5848241  )
        95           P   tau(  95) = (  -0.0738169   0.4496660   0.5848244  )
        96           P   tau(  96) = (  -0.0738169   0.4496659   0.2923983  )
        97           P   tau(  97) = (  -0.0754914  -0.1307564   0.1481598  )
        98           P   tau(  98) = (  -0.0754911  -0.1307558   0.7290636  )
        99           P   tau(  99) = (  -0.0742917  -0.1286783   0.4386116  )
       100           P   tau( 100) = (  -0.3240928   0.3054802   0.1461795  )
       101           P   tau( 101) = (   0.1760297   0.3048914   0.1461775  )
       102           P   tau( 102) = (   0.4266017  -0.1279327   0.1461794  )
       103           P   tau( 103) = (  -0.3240929   0.3054803   0.7310433  )
       104           P   tau( 104) = (   0.1760297   0.3048914   0.7310454  )
       105           P   tau( 105) = (   0.4266018  -0.1279328   0.7310434  )
       106           P   tau( 106) = (  -0.3241249   0.3052885   0.4386114  )
       107           P   tau( 107) = (   0.1767777   0.3061897   0.4386114  )
       108           P   tau( 108) = (   0.4264495  -0.1280563   0.4386114  )
       109           H   tau( 109) = (   0.0000000   0.0000000   0.0000000  )

   Crystallographic axes

     site n.     atom                  positions (cryst. coord.)
         1           Fe  tau(   1) = ( -0.1457591 -0.0173594 -0.0000061  )
         2           Fe  tau(   2) = (  0.7237745  0.7237731 -0.0000059  )
         3           Fe  tau(   3) = ( -0.0173560 -0.1457620 -0.0000061  )
         4           Fe  tau(   4) = ( -0.1483640 -0.0191911  0.3339321  )
         5           Fe  tau(   5) = (  0.7224208  0.7224212  0.3348269  )
         6           Fe  tau(   6) = ( -0.0191913 -0.1483633  0.3339300  )
         7           Fe  tau(   7) = ( -0.1483638 -0.0191909  0.6660565  )
         8           Fe  tau(   8) = (  0.7224211  0.7224214  0.6651618  )
         9           Fe  tau(   9) = ( -0.0191911 -0.1483631  0.6660585  )
        10           Fe  tau(  10) = ( -0.1477591  0.4821103 -0.0000059  )
        11           Fe  tau(  11) = (  0.2236504  0.2236476 -0.0000060  )
        12           Fe  tau(  12) = (  0.4821141 -0.1477584 -0.0000059  )
        13           Fe  tau(  13) = ( -0.1477558  0.4811369  0.3331689  )
        14           Fe  tau(  14) = (  0.2237475  0.2237480  0.3347456  )
        15           Fe  tau(  15) = (  0.4811367 -0.1477557  0.3331689  )
        16           Fe  tau(  16) = ( -0.1477559  0.4811370  0.6668192  )
        17           Fe  tau(  17) = (  0.2237476  0.2237480  0.6652425  )
        18           Fe  tau(  18) = (  0.4811368 -0.1477557  0.6668191  )
        19           Fe  tau(  19) = (  0.3546621 -0.0183615 -0.0000060  )
        20           Fe  tau(  20) = (  0.7239403  0.2241364 -0.0000059  )
        21           Fe  tau(  21) = (  0.4816038  0.3525997 -0.0000059  )
        22           Fe  tau(  22) = ( -0.0183616  0.3546601 -0.0000060  )
        23           Fe  tau(  23) = (  0.2241400  0.7239394 -0.0000059  )
        24           Fe  tau(  24) = (  0.3525996  0.4816023 -0.0000059  )
        25           Fe  tau(  25) = (  0.3527086 -0.0188273  0.3333940  )
        26           Fe  tau(  26) = (  0.7234584  0.2234133  0.3333686  )
        27           Fe  tau(  27) = (  0.4812472  0.3523820  0.3331804  )
        28           Fe  tau(  28) = (  0.3527087 -0.0188273  0.6665940  )
        29           Fe  tau(  29) = (  0.7234584  0.2234134  0.6666194  )
        30           Fe  tau(  30) = (  0.4812472  0.3523821  0.6668076  )
        31           Fe  tau(  31) = ( -0.0188277  0.3527087  0.6665945  )
        32           Fe  tau(  32) = (  0.2234128  0.7234583  0.6666191  )
        33           Fe  tau(  33) = (  0.3523812  0.4812473  0.6668082  )
        34           Fe  tau(  34) = ( -0.0188277  0.3527085  0.3333935  )
        35           Fe  tau(  35) = (  0.2234127  0.7234583  0.3333688  )
        36           Fe  tau(  36) = (  0.3523812  0.4812473  0.3331798  )
        37           Fe  tau(  37) = ( -0.1469377  0.1499656  0.1665529  )
        38           Fe  tau(  38) = (  0.5555331  0.5555333  0.1670229  )
        39           Fe  tau(  39) = (  0.1499686 -0.1469374  0.1665530  )
        40           Fe  tau(  40) = ( -0.1469379  0.1499657  0.8334351  )
        41           Fe  tau(  41) = (  0.5555331  0.5555333  0.8329653  )
        42           Fe  tau(  42) = (  0.1499687 -0.1469376  0.8334350  )
        43           Fe  tau(  43) = ( -0.1479711  0.1492728  0.4999941  )
        44           Fe  tau(  44) = (  0.5551193  0.5551200  0.4999941  )
        45           Fe  tau(  45) = (  0.1492715 -0.1479707  0.4999941  )
        46           Fe  tau(  46) = ( -0.1470060  0.6496312  0.1666573  )
        47           Fe  tau(  47) = (  0.0565477  0.0565494  0.1744773  )
        48           Fe  tau(  48) = (  0.6496338 -0.1470049  0.1666568  )
        49           Fe  tau(  49) = ( -0.1470060  0.6496312  0.8333309  )
        50           Fe  tau(  50) = (  0.0565482  0.0565499  0.8255112  )
        51           Fe  tau(  51) = (  0.6496338 -0.1470050  0.8333315  )
        52           Fe  tau(  52) = ( -0.1480699  0.6479761  0.4999942  )
        53           Fe  tau(  53) = (  0.0550316  0.0550317  0.4999943  )
        54           Fe  tau(  54) = (  0.6479750 -0.1480705  0.4999942  )
        55           Fe  tau(  55) = (  0.3532890  0.1497178  0.1678212  )
        56           Fe  tau(  56) = (  0.5563709  0.0556888  0.1668419  )
        57           Fe  tau(  57) = (  0.6490362  0.3525494  0.1665879  )
        58           Fe  tau(  58) = (  0.3532894  0.1497181  0.8321666  )
        59           Fe  tau(  59) = (  0.5563710  0.0556888  0.8331461  )
        60           Fe  tau(  60) = (  0.6490362  0.3525494  0.8334001  )
        61           Fe  tau(  61) = (  0.1497183  0.3532873  0.8321677  )
        62           Fe  tau(  62) = (  0.0556888  0.5563690  0.8331458  )
        63           Fe  tau(  63) = (  0.3525492  0.6490355  0.8333999  )
        64           Fe  tau(  64) = (  0.1497180  0.3532868  0.1678202  )
        65           Fe  tau(  65) = (  0.0556887  0.5563689  0.1668423  )
        66           Fe  tau(  66) = (  0.3525492  0.6490355  0.1665881  )
        67           Fe  tau(  67) = (  0.3528271  0.1493723  0.4999940  )
        68           Fe  tau(  68) = (  0.5556365  0.0556073  0.4999940  )
        69           Fe  tau(  69) = (  0.6488776  0.3522076  0.4999940  )
        70           Fe  tau(  70) = (  0.1493717  0.3528276  0.4999940  )
        71           Fe  tau(  71) = (  0.0556068  0.5556369  0.4999940  )
        72           Fe  tau(  72) = (  0.3522069  0.6488773  0.4999940  )
        73           P   tau(  73) = (  0.0211116  0.1909956 -0.0000063  )
        74           P   tau(  74) = (  0.5198929  0.6857736 -0.0000059  )
        75           P   tau(  75) = (  0.0198404  0.6860256 -0.0000059  )
        76           P   tau(  76) = (  0.1909951  0.0211082 -0.0000063  )
        77           P   tau(  77) = (  0.6857750  0.5198921 -0.0000059  )
        78           P   tau(  78) = (  0.6860316  0.0198385 -0.0000059  )
        79           P   tau(  79) = (  0.0183813  0.1860198  0.3345178  )
        80           P   tau(  80) = (  0.5187514  0.6856887  0.3332183  )
        81           P   tau(  81) = (  0.0189422  0.6855014  0.3333051  )
        82           P   tau(  82) = (  0.0183815  0.1860201  0.6654703  )
        83           P   tau(  83) = (  0.5187515  0.6856887  0.6667698  )
        84           P   tau(  84) = (  0.0189422  0.6855015  0.6666830  )
        85           P   tau(  85) = (  0.1860197  0.0183821  0.6654712  )
        86           P   tau(  86) = (  0.6856885  0.5187519  0.6667697  )
        87           P   tau(  87) = (  0.6855010  0.0189425  0.6666823  )
        88           P   tau(  88) = (  0.1860194  0.0183819  0.3345169  )
        89           P   tau(  89) = (  0.6856885  0.5187518  0.3332185  )
        90           P   tau(  90) = (  0.6855009  0.0189425  0.3333058  )
        91           P   tau(  91) = (  0.5196320  0.1862047 -0.0000060  )
        92           P   tau(  92) = (  0.1862046  0.5196302 -0.0000060  )
        93           P   tau(  93) = (  0.5192300  0.1857989  0.3333191  )
        94           P   tau(  94) = (  0.5192301  0.1857989  0.6666688  )
        95           P   tau(  95) = (  0.1857979  0.5192296  0.6666692  )
        96           P   tau(  96) = (  0.1857978  0.5192295  0.3333187  )
        97           P   tau(  97) = ( -0.1509836 -0.1509845  0.1688944  )
        98           P   tau(  98) = ( -0.1509830 -0.1509838  0.8310943  )
        99           P   tau(  99) = ( -0.1485841 -0.1485849  0.4999943  )
       100           P   tau( 100) = ( -0.1477237  0.3527382  0.1666369  )
       101           P   tau( 101) = (  0.3520588  0.3520582  0.1666346  )
       102           P   tau( 102) = (  0.3527397 -0.1477240  0.1666368  )
       103           P   tau( 103) = ( -0.1477238  0.3527382  0.8333511  )
       104           P   tau( 104) = (  0.3520589  0.3520583  0.8333534  )
       105           P   tau( 105) = (  0.3527398 -0.1477240  0.8333512  )
       106           P   tau( 106) = ( -0.1478664  0.3525169  0.4999940  )
       107           P   tau( 107) = (  0.3535564  0.3535574  0.4999940  )
       108           P   tau( 108) = (  0.3525161 -0.1478667  0.4999940  )
       109           H   tau( 109) = (  0.0000000  0.0000000  0.0000000  )

     number of k points=    24  gaussian smearing, width (Ry)=  0.0200
                       cart. coord. in units 2pi/alat
        k(    1) = (   0.0000000   0.0000000   0.0000000), wk =   0.0156250
        k(    2) = (   0.0000000   0.0000000   0.2849869), wk =   0.0312500
        k(    3) = (   0.0000000   0.0000000  -0.5699738), wk =   0.0156250
        k(    4) = (   0.0000000   0.2886752   0.0000000), wk =   0.0625000
        k(    5) = (   0.0000000   0.2886752   0.2849869), wk =   0.0625000
        k(    6) = (   0.0000000   0.2886752  -0.5699738), wk =   0.0625000
        k(    7) = (   0.0000000  -0.5773503   0.0000000), wk =   0.0312500
        k(    8) = (   0.0000000  -0.5773503   0.2849869), wk =   0.0625000
        k(    9) = (   0.0000000  -0.5773503  -0.5699738), wk =   0.0312500
        k(   10) = (   0.2500000   0.4330127   0.0000000), wk =   0.0312500
        k(   11) = (   0.2500000   0.4330127   0.2849869), wk =   0.0312500
        k(   12) = (   0.2500000   0.4330127  -0.5699738), wk =   0.0312500
        k(   13) = (  -0.2500000   0.1443376   0.0000000), wk =   0.0312500
        k(   14) = (   0.0000000   0.2886752  -0.2849869), wk =   0.0625000
        k(   15) = (  -0.2500000   0.1443376   0.2849869), wk =   0.0625000
        k(   16) = (  -0.2500000   0.1443376  -0.5699738), wk =   0.0312500
        k(   17) = (   0.5000000  -0.2886752   0.0000000), wk =   0.0156250
        k(   18) = (   0.5000000  -0.2886752   0.2849869), wk =   0.0312500
        k(   19) = (   0.5000000  -0.2886752  -0.5699738), wk =   0.0156250
        k(   20) = (  -0.2500000   0.4330127   0.0000000), wk =   0.0625000
        k(   21) = (  -0.2500000   0.4330127  -0.2849869), wk =   0.0625000
        k(   22) = (   0.2500000  -0.4330127  -0.2849869), wk =   0.0625000
        k(   23) = (   0.2500000   0.4330127  -0.2849869), wk =   0.0312500
        k(   24) = (  -0.2500000   0.4330127   0.5699738), wk =   0.0625000

                       cryst. coord.
        k(    1) = (   0.0000000   0.0000000   0.0000000), wk =   0.0156250
        k(    2) = (   0.0000000   0.0000000   0.2500000), wk =   0.0312500
        k(    3) = (   0.0000000   0.0000000  -0.5000000), wk =   0.0156250
        k(    4) = (   0.0000000   0.2500000   0.0000000), wk =   0.0625000
        k(    5) = (   0.0000000   0.2500000   0.2500000), wk =   0.0625000
        k(    6) = (   0.0000000   0.2500000  -0.5000000), wk =   0.0625000
        k(    7) = (   0.0000000  -0.5000000   0.0000000), wk =   0.0312500
        k(    8) = (   0.0000000  -0.5000000   0.2500000), wk =   0.0625000
        k(    9) = (   0.0000000  -0.5000000  -0.5000000), wk =   0.0312500
        k(   10) = (   0.2500000   0.2500000   0.0000000), wk =   0.0312500
        k(   11) = (   0.2500000   0.2500000   0.2500000), wk =   0.0312500
        k(   12) = (   0.2500000   0.2500000  -0.5000000), wk =   0.0312500
        k(   13) = (  -0.2500000   0.2500000   0.0000000), wk =   0.0312500
        k(   14) = (   0.0000000   0.2500000  -0.2500000), wk =   0.0625000
        k(   15) = (  -0.2500000   0.2500000   0.2500000), wk =   0.0625000
        k(   16) = (  -0.2500000   0.2500000  -0.5000000), wk =   0.0312500
        k(   17) = (   0.5000000  -0.5000000   0.0000000), wk =   0.0156250
        k(   18) = (   0.5000000  -0.5000000   0.2500000), wk =   0.0312500
        k(   19) = (   0.5000000  -0.5000000  -0.5000000), wk =   0.0156250
        k(   20) = (  -0.2500000   0.5000000   0.0000000), wk =   0.0625000
        k(   21) = (  -0.2500000   0.5000000  -0.2500000), wk =   0.0625000
        k(   22) = (   0.2500000  -0.5000000  -0.2500000), wk =   0.0625000
        k(   23) = (   0.2500000   0.2500000  -0.2500000), wk =   0.0312500
        k(   24) = (  -0.2500000   0.5000000   0.5000000), wk =   0.0625000

     Dense  grid:  3180745 G-vectors     FFT dimensions: ( 200, 200, 180)

     Smooth grid:   804717 G-vectors     FFT dimensions: ( 128, 128, 120)

     Dynamical RAM for                 wfc:      19.18 MB

     Dynamical RAM for     wfc (w. buffer):     479.43 MB

     Dynamical RAM for           str. fact:       2.28 MB

     Dynamical RAM for           local pot:       0.00 MB

     Dynamical RAM for          nlocal pot:      46.65 MB

     Dynamical RAM for                qrad:      24.04 MB

     Dynamical RAM for          rho,v,vnew:      10.04 MB

     Dynamical RAM for               rhoin:       3.35 MB

     Dynamical RAM for            rho*nmix:      24.27 MB

     Dynamical RAM for           G-vectors:       2.94 MB

     Dynamical RAM for          h,s,v(r/c):       7.32 MB

     Dynamical RAM for          <psi|beta>:      23.75 MB

     Dynamical RAM for                 psi:      76.71 MB

     Dynamical RAM for                hpsi:      76.71 MB

     Dynamical RAM for                spsi:      76.71 MB

     Dynamical RAM for      wfcinit/wfcrot:      78.58 MB

     Dynamical RAM for           addusdens:      98.97 MB

     Dynamical RAM for          addusforce:     195.38 MB

     Dynamical RAM for         addusstress:      77.17 MB

     Estimated static dynamical RAM per process >     601.52 MB

     Estimated max dynamical RAM per process >     862.73 MB

     Estimated total dynamical RAM >     107.84 GB
     Generating pointlists ...
     new r_m :   0.0569 (alat units)  1.2635 (a.u.) for type    1
     new r_m :   0.0748 (alat units)  1.6617 (a.u.) for type    2
     new r_m :   0.0569 (alat units)  1.2635 (a.u.) for type    3

     Check: negative/imaginary core charge=   -0.000013    0.000000

     Initial potential from superposition of free atoms

     starting charge 1332.96266, renormalised to 1333.00000
     Starting wfcs are 1081 randomized atomic wfcs
     Checking if some PAW data can be deallocated... 
       PAW data deallocated on   37 nodes for type:  1
       PAW data deallocated on   92 nodes for type:  2
       PAW data deallocated on  127 nodes for type:  3

     total cpu time spent up to now is      287.4 secs

     Self-consistent Calculation

     iteration #  1     ecut=    80.00 Ry     beta= 0.20
     Davidson diagonalization with overlap
     ethr =  1.00E-02,  avg # of iterations =  3.0

     negative rho (up, down):  0.000E+00 3.494E-06

     total cpu time spent up to now is     1077.2 secs

     total energy              =  -25685.68050119 Ry
     Harris-Foulkes estimate   =  -25676.92590650 Ry
     estimated scf accuracy    <      44.30280750 Ry

     total magnetization       =   248.52 Bohr mag/cell
     absolute magnetization    =   254.71 Bohr mag/cell

     iteration #  2     ecut=    80.00 Ry     beta= 0.20
     Davidson diagonalization with overlap
     ethr =  3.32E-03,  avg # of iterations =  2.0

     negative rho (up, down):  0.000E+00 6.336E-03

     total cpu time spent up to now is     1688.3 secs

     total energy              =  -25702.92137844 Ry
     Harris-Foulkes estimate   =  -25686.91906317 Ry
     estimated scf accuracy    <      28.95270239 Ry

     total magnetization       =   238.35 Bohr mag/cell
     absolute magnetization    =   245.60 Bohr mag/cell

     iteration #  3     ecut=    80.00 Ry     beta= 0.20
     Davidson diagonalization with overlap
     ethr =  2.17E-03,  avg # of iterations =  1.8

     negative rho (up, down):  0.000E+00 8.123E-03

     total cpu time spent up to now is     2322.6 secs

     total energy              =  -25708.92369558 Ry
     Harris-Foulkes estimate   =  -25708.11382097 Ry
     estimated scf accuracy    <      14.41773785 Ry

     total magnetization       =   160.70 Bohr mag/cell
     absolute magnetization    =   182.76 Bohr mag/cell

     iteration #  4     ecut=    80.00 Ry     beta= 0.20
     Davidson diagonalization with overlap
     ethr =  1.08E-03,  avg # of iterations =  3.1

     negative rho (up, down):  0.000E+00 7.444E-03

     total cpu time spent up to now is     2938.0 secs

     total energy              =  -25709.99557420 Ry
     Harris-Foulkes estimate   =  -25709.62399132 Ry
     estimated scf accuracy    <      42.89501615 Ry

     total magnetization       =   154.77 Bohr mag/cell
     absolute magnetization    =   176.99 Bohr mag/cell

     iteration #  5     ecut=    80.00 Ry     beta= 0.20
     Davidson diagonalization with overlap
     ethr =  1.08E-03,  avg # of iterations =  1.0

     negative rho (up, down):  0.000E+00 3.466E-03

     total cpu time spent up to now is     3446.5 secs

     total energy              =  -25708.34661243 Ry
     Harris-Foulkes estimate   =  -25710.47249315 Ry
     estimated scf accuracy    <      20.19398120 Ry

     total magnetization       =   143.96 Bohr mag/cell
     absolute magnetization    =   167.31 Bohr mag/cell

     iteration #  6     ecut=    80.00 Ry     beta= 0.20
     Davidson diagonalization with overlap
     ethr =  1.08E-03,  avg # of iterations =  2.0

     negative rho (up, down):  0.000E+00 2.866E-03

     total cpu time spent up to now is     4110.3 secs

     total energy              =  -25711.21325124 Ry
     Harris-Foulkes estimate   =  -25711.52108540 Ry
     estimated scf accuracy    <       6.01622035 Ry

     total magnetization       =   114.66 Bohr mag/cell
     absolute magnetization    =   133.75 Bohr mag/cell

     iteration #  7     ecut=    80.00 Ry     beta= 0.20
     Davidson diagonalization with overlap
     ethr =  4.51E-04,  avg # of iterations =  1.0

     negative rho (up, down):  0.000E+00 1.930E-03

     total cpu time spent up to now is     4621.5 secs

     total energy              =  -25711.42498178 Ry
     Harris-Foulkes estimate   =  -25711.40545979 Ry
     estimated scf accuracy    <       0.75134137 Ry

     total magnetization       =   110.37 Bohr mag/cell
     absolute magnetization    =   127.92 Bohr mag/cell

     iteration #  8     ecut=    80.00 Ry     beta= 0.20
     Davidson diagonalization with overlap
     ethr =  5.64E-05,  avg # of iterations =  7.6

     negative rho (up, down):  0.000E+00 8.650E-04

     total cpu time spent up to now is     5710.4 secs

     total energy              =  -25711.56465740 Ry
     Harris-Foulkes estimate   =  -25711.48351497 Ry
     estimated scf accuracy    <       0.16147352 Ry

     total magnetization       =   109.81 Bohr mag/cell
     absolute magnetization    =   125.62 Bohr mag/cell

     iteration #  9     ecut=    80.00 Ry     beta= 0.20
     Davidson diagonalization with overlap
     ethr =  1.21E-05,  avg # of iterations =  6.3

     negative rho (up, down):  0.000E+00 6.647E-04

     total cpu time spent up to now is     6928.7 secs

     total energy              =  -25711.60283723 Ry
     Harris-Foulkes estimate   =  -25711.67360604 Ry
     estimated scf accuracy    <       1.92947354 Ry

     total magnetization       =   108.87 Bohr mag/cell
     absolute magnetization    =   121.74 Bohr mag/cell

     iteration # 10     ecut=    80.00 Ry     beta= 0.20
     Davidson diagonalization with overlap
     ethr =  1.21E-05,  avg # of iterations =  2.0

     negative rho (up, down):  0.000E+00 6.411E-04

     total cpu time spent up to now is     7490.0 secs

     total energy              =  -25711.60054343 Ry
     Harris-Foulkes estimate   =  -25711.63127681 Ry
     estimated scf accuracy    <       0.42885560 Ry

     total magnetization       =   108.02 Bohr mag/cell
     absolute magnetization    =   120.11 Bohr mag/cell

     iteration # 11     ecut=    80.00 Ry     beta= 0.20
     Davidson diagonalization with overlap
     ethr =  1.21E-05,  avg # of iterations =  2.0

     negative rho (up, down):  0.000E+00 7.690E-04

     total cpu time spent up to now is     8072.6 secs

     total energy              =  -25711.63262596 Ry
     Harris-Foulkes estimate   =  -25711.62567452 Ry
     estimated scf accuracy    <       0.01461176 Ry

     total magnetization       =   107.28 Bohr mag/cell
     absolute magnetization    =   118.65 Bohr mag/cell

     iteration # 12     ecut=    80.00 Ry     beta= 0.20
     Davidson diagonalization with overlap
     ethr =  1.10E-06,  avg # of iterations =  3.6

     negative rho (up, down):  0.000E+00 8.803E-04

     total cpu time spent up to now is     8903.7 secs

     total energy              =  -25711.63796611 Ry
     Harris-Foulkes estimate   =  -25711.63775093 Ry
     estimated scf accuracy    <       0.01775874 Ry

     total magnetization       =   106.87 Bohr mag/cell
     absolute magnetization    =   117.63 Bohr mag/cell

     iteration # 13     ecut=    80.00 Ry     beta= 0.20
     Davidson diagonalization with overlap
     ethr =  1.10E-06,  avg # of iterations =  2.6

     negative rho (up, down):  0.000E+00 8.859E-04

     total cpu time spent up to now is     9574.8 secs

     total energy              =  -25711.64434345 Ry
     Harris-Foulkes estimate   =  -25711.64365879 Ry
     estimated scf accuracy    <       0.00662237 Ry

     total magnetization       =   106.78 Bohr mag/cell
     absolute magnetization    =   117.01 Bohr mag/cell

     iteration # 14     ecut=    80.00 Ry     beta= 0.20
     Davidson diagonalization with overlap
     ethr =  4.97E-07,  avg # of iterations =  2.6

     negative rho (up, down):  0.000E+00 9.274E-04

     total cpu time spent up to now is    10226.9 secs

     total energy              =  -25711.64576717 Ry
     Harris-Foulkes estimate   =  -25711.64520456 Ry
     estimated scf accuracy    <       0.00738259 Ry

     total magnetization       =   106.29 Bohr mag/cell
     absolute magnetization    =   116.33 Bohr mag/cell

     iteration # 15     ecut=    80.00 Ry     beta= 0.20
     Davidson diagonalization with overlap
     ethr =  4.97E-07,  avg # of iterations =  1.5

     negative rho (up, down):  0.000E+00 9.345E-04

     total cpu time spent up to now is    10787.2 secs

     total energy              =  -25711.64658951 Ry
     Harris-Foulkes estimate   =  -25711.64630629 Ry
     estimated scf accuracy    <       0.00143600 Ry

     total magnetization       =   106.15 Bohr mag/cell
     absolute magnetization    =   116.25 Bohr mag/cell

     iteration # 16     ecut=    80.00 Ry     beta= 0.20
     Davidson diagonalization with overlap
     ethr =  1.08E-07,  avg # of iterations =  3.1

     negative rho (up, down):  0.000E+00 9.234E-04

     total cpu time spent up to now is    11542.6 secs

     total energy              =  -25711.64710995 Ry
     Harris-Foulkes estimate   =  -25711.64689191 Ry
     estimated scf accuracy    <       0.00026289 Ry

     total magnetization       =   106.01 Bohr mag/cell
     absolute magnetization    =   116.03 Bohr mag/cell

     iteration # 17     ecut=    80.00 Ry     beta= 0.20
     Davidson diagonalization with overlap
     ethr =  1.97E-08,  avg # of iterations =  3.4

     negative rho (up, down):  0.000E+00 9.195E-04

     total cpu time spent up to now is    12561.2 secs

     total energy              =  -25711.64751713 Ry
     Harris-Foulkes estimate   =  -25711.64731245 Ry
     estimated scf accuracy    <       0.00014254 Ry

     total magnetization       =   106.05 Bohr mag/cell
     absolute magnetization    =   116.06 Bohr mag/cell

     iteration # 18     ecut=    80.00 Ry     beta= 0.20
     Davidson diagonalization with overlap
     ethr =  1.07E-08,  avg # of iterations =  2.1

     negative rho (up, down):  0.000E+00 9.193E-04

     total cpu time spent up to now is    13164.7 secs

     total energy              =  -25711.64766267 Ry
     Harris-Foulkes estimate   =  -25711.64754112 Ry
     estimated scf accuracy    <       0.00003338 Ry

     total magnetization       =   106.14 Bohr mag/cell
     absolute magnetization    =   116.19 Bohr mag/cell

     iteration # 19     ecut=    80.00 Ry     beta= 0.20
     Davidson diagonalization with overlap
     ethr =  2.50E-09,  avg # of iterations =  2.5

     negative rho (up, down):  0.000E+00 9.261E-04

     total cpu time spent up to now is    13795.3 secs

     total energy              =  -25711.64774493 Ry
     Harris-Foulkes estimate   =  -25711.64766685 Ry
     estimated scf accuracy    <       0.00001544 Ry

     total magnetization       =   106.17 Bohr mag/cell
     absolute magnetization    =   116.25 Bohr mag/cell

     iteration # 20     ecut=    80.00 Ry     beta= 0.20
     Davidson diagonalization with overlap
     ethr =  1.16E-09,  avg # of iterations =  2.2

     negative rho (up, down):  0.000E+00 9.278E-04

     total cpu time spent up to now is    14487.4 secs

     total energy              =  -25711.64779112 Ry
     Harris-Foulkes estimate   =  -25711.64774980 Ry
     estimated scf accuracy    <       0.00000423 Ry

     total magnetization       =   106.16 Bohr mag/cell
     absolute magnetization    =   116.25 Bohr mag/cell

     iteration # 21     ecut=    80.00 Ry     beta= 0.20
     Davidson diagonalization with overlap
     ethr =  3.17E-10,  avg # of iterations =  3.0

     negative rho (up, down):  0.000E+00 9.287E-04

     total cpu time spent up to now is    15243.6 secs

     total energy              =  -25711.64781904 Ry
     Harris-Foulkes estimate   =  -25711.64779302 Ry
     estimated scf accuracy    <       0.00000163 Ry

     total magnetization       =   106.14 Bohr mag/cell
     absolute magnetization    =   116.23 Bohr mag/cell

     iteration # 22     ecut=    80.00 Ry     beta= 0.20
     Davidson diagonalization with overlap
     ethr =  1.22E-10,  avg # of iterations =  2.0

     negative rho (up, down):  0.000E+00 9.305E-04

     total cpu time spent up to now is    15814.5 secs

     total energy              =  -25711.64783796 Ry
     Harris-Foulkes estimate   =  -25711.64781923 Ry
     estimated scf accuracy    <       0.00000108 Ry

     total magnetization       =   106.14 Bohr mag/cell
     absolute magnetization    =   116.23 Bohr mag/cell

     iteration # 23     ecut=    80.00 Ry     beta= 0.20
     Davidson diagonalization with overlap
     ethr =  8.13E-11,  avg # of iterations =  2.8

     negative rho (up, down):  0.000E+00 9.312E-04

     total cpu time spent up to now is    16512.5 secs

     total energy              =  -25711.64784891 Ry
     Harris-Foulkes estimate   =  -25711.64783852 Ry
     estimated scf accuracy    <       0.00000030 Ry

     total magnetization       =   106.15 Bohr mag/cell
     absolute magnetization    =   116.23 Bohr mag/cell

     iteration # 24     ecut=    80.00 Ry     beta= 0.20
     Davidson diagonalization with overlap
     ethr =  2.28E-11,  avg # of iterations =  3.0

     negative rho (up, down):  0.000E+00 9.311E-04

     total cpu time spent up to now is    17161.6 secs

     total energy              =  -25711.64785528 Ry
     Harris-Foulkes estimate   =  -25711.64784902 Ry
     estimated scf accuracy    <       0.00000019 Ry

     total magnetization       =   106.15 Bohr mag/cell
     absolute magnetization    =   116.23 Bohr mag/cell

     iteration # 25     ecut=    80.00 Ry     beta= 0.20
     Davidson diagonalization with overlap
     ethr =  1.44E-11,  avg # of iterations =  2.5

     negative rho (up, down):  0.000E+00 9.307E-04

     total cpu time spent up to now is    17793.7 secs

     total energy              =  -25711.64785936 Ry
     Harris-Foulkes estimate   =  -25711.64785533 Ry
     estimated scf accuracy    <       0.00000014 Ry

     total magnetization       =   106.15 Bohr mag/cell
     absolute magnetization    =   116.23 Bohr mag/cell

     iteration # 26     ecut=    80.00 Ry     beta= 0.20
     Davidson diagonalization with overlap
     ethr =  1.04E-11,  avg # of iterations =  3.0

     negative rho (up, down):  0.000E+00 9.305E-04
 
     Magnetic moment per site:
     atom:    1    charge:   12.0299    magn:    0.6061    constr:    0.0000
     atom:    2    charge:   12.0253    magn:    0.6297    constr:    0.0000
     atom:    3    charge:   12.0299    magn:    0.6061    constr:    0.0000
     atom:    4    charge:   12.0231    magn:    0.7275    constr:    0.0000
     atom:    5    charge:   12.0248    magn:    0.6784    constr:    0.0000
     atom:    6    charge:   12.0231    magn:    0.7275    constr:    0.0000
     atom:    7    charge:   12.0231    magn:    0.7275    constr:    0.0000
     atom:    8    charge:   12.0248    magn:    0.6784    constr:    0.0000
     atom:    9    charge:   12.0231    magn:    0.7275    constr:    0.0000
     atom:   10    charge:   12.0230    magn:    0.7390    constr:    0.0000
     atom:   11    charge:   12.0222    magn:    0.5967    constr:    0.0000
     atom:   12    charge:   12.0230    magn:    0.7390    constr:    0.0000
     atom:   13    charge:   12.0233    magn:    0.7157    constr:    0.0000
     atom:   14    charge:   12.0229    magn:    0.7918    constr:    0.0000
     atom:   15    charge:   12.0233    magn:    0.7157    constr:    0.0000
     atom:   16    charge:   12.0233    magn:    0.7157    constr:    0.0000
     atom:   17    charge:   12.0229    magn:    0.7918    constr:    0.0000
     atom:   18    charge:   12.0233    magn:    0.7157    constr:    0.0000
     atom:   19    charge:   12.0245    magn:    0.6883    constr:    0.0000
     atom:   20    charge:   12.0235    magn:    0.7164    constr:    0.0000
     atom:   21    charge:   12.0227    magn:    0.7218    constr:    0.0000
     atom:   22    charge:   12.0245    magn:    0.6883    constr:    0.0000
     atom:   23    charge:   12.0235    magn:    0.7164    constr:    0.0000
     atom:   24    charge:   12.0227    magn:    0.7218    constr:    0.0000
     atom:   25    charge:   12.0232    magn:    0.7219    constr:    0.0000
     atom:   26    charge:   12.0233    magn:    0.7178    constr:    0.0000
     atom:   27    charge:   12.0231    magn:    0.7181    constr:    0.0000
     atom:   28    charge:   12.0232    magn:    0.7219    constr:    0.0000
     atom:   29    charge:   12.0233    magn:    0.7178    constr:    0.0000
     atom:   30    charge:   12.0231    magn:    0.7181    constr:    0.0000
     atom:   31    charge:   12.0232    magn:    0.7219    constr:    0.0000
     atom:   32    charge:   12.0233    magn:    0.7178    constr:    0.0000
     atom:   33    charge:   12.0231    magn:    0.7181    constr:    0.0000
     atom:   34    charge:   12.0232    magn:    0.7219    constr:    0.0000
     atom:   35    charge:   12.0233    magn:    0.7178    constr:    0.0000
     atom:   36    charge:   12.0231    magn:    0.7181    constr:    0.0000
     atom:   37    charge:   12.0022    magn:    1.8260    constr:    0.0000
     atom:   38    charge:   12.0019    magn:    1.8281    constr:    0.0000
     atom:   39    charge:   12.0022    magn:    1.8260    constr:    0.0000
     atom:   40    charge:   12.0022    magn:    1.8260    constr:    0.0000
     atom:   41    charge:   12.0019    magn:    1.8281    constr:    0.0000
     atom:   42    charge:   12.0022    magn:    1.8260    constr:    0.0000
     atom:   43    charge:   12.0019    magn:    1.8191    constr:    0.0000
     atom:   44    charge:   12.0018    magn:    1.8249    constr:    0.0000
     atom:   45    charge:   12.0019    magn:    1.8191    constr:    0.0000
     atom:   46    charge:   12.0033    magn:    1.8019    constr:    0.0000
     atom:   47    charge:   12.0094    magn:    1.8074    constr:    0.0000
     atom:   48    charge:   12.0033    magn:    1.8019    constr:    0.0000
     atom:   49    charge:   12.0033    magn:    1.8019    constr:    0.0000
     atom:   50    charge:   12.0094    magn:    1.8075    constr:    0.0000
     atom:   51    charge:   12.0033    magn:    1.8019    constr:    0.0000
     atom:   52    charge:   12.0014    magn:    1.8321    constr:    0.0000
     atom:   53    charge:   12.0018    magn:    1.8349    constr:    0.0000
     atom:   54    charge:   12.0014    magn:    1.8321    constr:    0.0000
     atom:   55    charge:   12.0027    magn:    1.8078    constr:    0.0000
     atom:   56    charge:   12.0018    magn:    1.8298    constr:    0.0000
     atom:   57    charge:   12.0017    magn:    1.8264    constr:    0.0000
     atom:   58    charge:   12.0027    magn:    1.8078    constr:    0.0000
     atom:   59    charge:   12.0018    magn:    1.8298    constr:    0.0000
     atom:   60    charge:   12.0017    magn:    1.8264    constr:    0.0000
     atom:   61    charge:   12.0027    magn:    1.8078    constr:    0.0000
     atom:   62    charge:   12.0018    magn:    1.8298    constr:    0.0000
     atom:   63    charge:   12.0017    magn:    1.8264    constr:    0.0000
     atom:   64    charge:   12.0027    magn:    1.8078    constr:    0.0000
     atom:   65    charge:   12.0018    magn:    1.8298    constr:    0.0000
     atom:   66    charge:   12.0017    magn:    1.8264    constr:    0.0000
     atom:   67    charge:   12.0018    magn:    1.8353    constr:    0.0000
     atom:   68    charge:   12.0018    magn:    1.8285    constr:    0.0000
     atom:   69    charge:   12.0018    magn:    1.8229    constr:    0.0000
     atom:   70    charge:   12.0018    magn:    1.8353    constr:    0.0000
     atom:   71    charge:   12.0018    magn:    1.8285    constr:    0.0000
     atom:   72    charge:   12.0018    magn:    1.8229    constr:    0.0000
     atom:   73    charge:    2.2942    magn:   -0.0426    constr:    0.0000
     atom:   74    charge:    2.3008    magn:   -0.0453    constr:    0.0000
     atom:   75    charge:    2.2984    magn:   -0.0439    constr:    0.0000
     atom:   76    charge:    2.2942    magn:   -0.0426    constr:    0.0000
     atom:   77    charge:    2.3008    magn:   -0.0453    constr:    0.0000
     atom:   78    charge:    2.2984    magn:   -0.0439    constr:    0.0000
     atom:   79    charge:    2.3009    magn:   -0.0477    constr:    0.0000
     atom:   80    charge:    2.3014    magn:   -0.0460    constr:    0.0000
     atom:   81    charge:    2.3010    magn:   -0.0465    constr:    0.0000
     atom:   82    charge:    2.3009    magn:   -0.0477    constr:    0.0000
     atom:   83    charge:    2.3014    magn:   -0.0460    constr:    0.0000
     atom:   84    charge:    2.3010    magn:   -0.0465    constr:    0.0000
     atom:   85    charge:    2.3009    magn:   -0.0477    constr:    0.0000
     atom:   86    charge:    2.3014    magn:   -0.0460    constr:    0.0000
     atom:   87    charge:    2.3010    magn:   -0.0465    constr:    0.0000
     atom:   88    charge:    2.3009    magn:   -0.0477    constr:    0.0000
     atom:   89    charge:    2.3014    magn:   -0.0460    constr:    0.0000
     atom:   90    charge:    2.3010    magn:   -0.0465    constr:    0.0000
     atom:   91    charge:    2.3004    magn:   -0.0458    constr:    0.0000
     atom:   92    charge:    2.3004    magn:   -0.0458    constr:    0.0000
     atom:   93    charge:    2.3009    magn:   -0.0463    constr:    0.0000
     atom:   94    charge:    2.3009    magn:   -0.0463    constr:    0.0000
     atom:   95    charge:    2.3009    magn:   -0.0463    constr:    0.0000
     atom:   96    charge:    2.3009    magn:   -0.0463    constr:    0.0000
     atom:   97    charge:    2.3214    magn:   -0.0391    constr:    0.0000
     atom:   98    charge:    2.3214    magn:   -0.0391    constr:    0.0000
     atom:   99    charge:    2.3300    magn:   -0.0392    constr:    0.0000
     atom:  100    charge:    2.3275    magn:   -0.0397    constr:    0.0000
     atom:  101    charge:    2.3257    magn:   -0.0398    constr:    0.0000
     atom:  102    charge:    2.3275    magn:   -0.0397    constr:    0.0000
     atom:  103    charge:    2.3275    magn:   -0.0397    constr:    0.0000
     atom:  104    charge:    2.3257    magn:   -0.0398    constr:    0.0000
     atom:  105    charge:    2.3275    magn:   -0.0397    constr:    0.0000
     atom:  106    charge:    2.3274    magn:   -0.0396    constr:    0.0000
     atom:  107    charge:    2.3312    magn:   -0.0405    constr:    0.0000
     atom:  108    charge:    2.3274    magn:   -0.0396    constr:    0.0000
     atom:  109    charge:    0.9523    magn:   -0.0131    constr:    0.0000

     total cpu time spent up to now is    18507.4 secs

     End of self-consistent calculation

 ------ SPIN UP ------------


          k = 0.0000 0.0000 0.0000 (100519 PWs)   bands (ev):

   -71.1988 -71.1924 -71.1921 -71.1809 -71.1805 -71.1795 -71.1793 -71.1791
   -71.1789 -71.1759 -71.1758 -71.1741 -71.1739 -71.1720 -71.1718 -71.1717
   -71.1715 -71.1713 -71.1712 -71.1711 -71.1710 -71.1707 -71.1705 -71.1688
   -71.1676 -71.1674 -71.1499 -71.1497 -71.1494 -71.1492 -71.1348 -71.1347
   -71.1343 -71.1341 -71.1333 -71.1332 -70.0716 -70.0715 -70.0189 -70.0188
   -70.0182 -70.0181 -70.0106 -70.0105 -70.0101 -70.0100 -70.0098 -70.0097
   -70.0060 -70.0057 -70.0056 -70.0012 -70.0003 -69.9988 -69.9987 -69.9984
   -69.9983 -69.9983 -69.9982 -69.9979 -69.9964 -69.9962 -69.9960 -69.9959
   -69.9843 -69.9796 -69.9789 -69.9747 -69.9683 -69.9682 -69.9247 -69.8930
   -37.3421 -37.3265 -37.3259 -37.3122 -37.3117 -37.3117 -37.3112 -37.3111
   -37.3104 -37.3101 -37.3093 -37.3083 -37.3081 -37.3070 -37.3059 -37.3050
   -37.3047 -37.3044 -37.3041 -37.3028 -37.3026 -37.3000 -37.2993 -37.2991
   -37.2964 -37.2958 -37.2829 -37.2821 -37.2786 -37.2781 -37.2668 -37.2658
   -37.2619 -37.2614 -37.2550 -37.2519 -37.2378 -37.2347 -37.2340 -37.2300
   -37.2260 -37.2237 -37.2234 -37.2232 -37.2229 -37.2226 -37.2222 -37.2194
   -37.2183 -37.2175 -37.2172 -37.2167 -37.2165 -37.2156 -37.2153 -37.2151
   -37.2136 -37.2129 -37.2127 -37.2126 -37.2104 -37.2101 -37.2099 -37.2092
   -37.2091 -37.2086 -37.2085 -37.2084 -37.2054 -37.2046 -37.2038 -37.2038
   -37.2028 -37.2026 -37.2024 -37.2023 -37.2020 -37.2014 -37.2010 -37.1995
   -37.1983 -37.1975 -37.1971 -37.1954 -37.1948 -37.1945 -37.1935 -37.1928
   -37.1907 -37.1899 -37.1886 -37.1884 -37.1833 -37.1826 -37.1809 -37.1807
   -37.1796 -37.1791 -37.1777 -37.1772 -37.1770 -37.1765 -37.1692 -37.1685
   -37.1591 -37.1587 -37.1586 -37.1577 -36.3315 -36.3310 -36.3012 -36.3007
   -36.2992 -36.2990 -36.2989 -36.2983 -36.2977 -36.2972 -36.2784 -36.2723
   -36.2392 -36.2389 -36.2197 -36.2193 -36.2169 -36.2164 -36.2112 -36.2108
   -36.2108 -36.2103 -36.2100 -36.2100 -36.2082 -36.2081 -36.2079 -36.2076
   -36.2074 -36.1998 -36.1991 -36.1939 -36.1936 -36.1784 -36.1675 -36.1079
   -36.1076 -36.1075 -36.0958 -36.0926 -36.0735 -36.0714 -36.0706 -36.0704
   -36.0655 -36.0654 -36.0603 -36.0599 -36.0598 -36.0592 -36.0590 -36.0588
   -36.0560 -36.0556 -36.0556 -36.0551 -36.0547 -36.0547 -36.0516 -36.0508
   -36.0469 -36.0376 -36.0368 -36.0355 -36.0352 -36.0339 -36.0320 -36.0317
   -36.0275 -36.0272 -36.0264 -36.0259 -36.0257 -36.0254 -36.0252 -36.0246
   -36.0240 -36.0231 -36.0224 -36.0217 -36.0192 -36.0185 -36.0179 -36.0157
   -36.0148 -36.0147 -36.0145 -36.0135 -36.0128 -36.0119 -36.0112 -36.0110
   -36.0109 -36.0104 -36.0102 -36.0097 -36.0087 -36.0080 -35.9905 -35.9898
   -35.9819 -35.9788 -35.9678 -35.9672 -35.9669 -35.9564 -35.9422 -35.9011
     3.2744   4.2218   4.3399   4.3435   4.3522   4.3810   4.4153   4.4363
     4.4441   5.0647   5.1287   5.1465   5.1466   5.1514   5.1584   5.1929
     5.2432   5.2457   5.2470   5.2514   5.2535   5.3987   5.3993   5.4046
     5.4524   5.7254   5.7317   5.8210   5.8272   5.8283   5.8314   5.8378
     5.8381   5.8959   6.2037   6.2087   8.5894   9.5031   9.5052   9.6908
    10.0680  10.0744  10.0747  10.0772  10.0819  10.2168  10.3767  10.4274
    10.4516  10.4548  10.4582  10.4583  10.4613  10.4619  10.5055  10.5078
    10.6739  10.6740  10.6744  10.6781  10.6807  10.7056  10.7089  10.7184
    10.7667  10.7995  10.8015  10.9002  10.9253  11.0598  11.0661  11.1647
    11.2399  11.2485  11.2490  11.2543  11.2558  11.2691  11.2741  11.2766
    11.2769  11.4970  11.6108  11.6132  11.6165  11.7862  11.8390  11.8454
    11.8525  11.8534  11.8573  11.9094  11.9229  11.9671  12.0146  12.0150
    12.0207  12.0584  12.0625  12.0631  12.0631  12.0746  12.1731  12.2709
    12.3351  12.3361  12.3395  12.3399  12.3431  12.3825  12.3965  12.4014
    12.4026  12.4050  12.4086  12.4327  12.4585  12.4705  12.4831  12.4887
    12.4893  12.4922  12.4933  12.4950  12.4981  12.4986  12.7450  12.8041
    12.8044  12.8081  12.8314  12.8361  12.8364  12.8418  12.8443  12.8489
    12.8968  12.9109  12.9535  12.9656  12.9769  13.1530  13.1597  13.1611
    13.1642  13.4940  13.4978  13.5116  13.5146  13.5349  13.5355  13.5668
    13.7530  13.7546  13.7561  13.7607  13.7617  13.7634  13.7671  13.7865
    13.7929  13.7941  13.7964  13.7988  13.8001  13.8020  13.8025  13.8041
    13.8045  13.8092  13.8094  13.8296  13.8724  13.9039  13.9153  13.9549
    13.9575  13.9599  13.9669  13.9676  13.9713  13.9744  13.9779  13.9789
    13.9809  13.9826  13.9888  13.9890  13.9911  14.0094  14.0421  14.0599
    14.0653  14.0659  14.0675  14.0798  14.1011  14.1039  14.1396  14.1492
    14.1522  14.1800  14.1816  14.1850  14.1854  14.1885  14.1927  14.2043
    14.2084  14.2086  14.2121  14.2148  14.2624  14.2659  14.2695  14.2756
    14.3503  14.3695  14.3760  14.3933  14.4078  14.4093  14.4166  14.4183
    14.4270  14.6472  14.6622  14.6664  14.6665  14.6748  14.6864  14.6973
    14.7006  14.7025  14.7579  14.7580  14.8731  14.8806  14.8977  14.9014
    14.9050  14.9124  14.9131  14.9273  14.9338  14.9343  14.9453  14.9474
    14.9571  15.0083  15.0134  15.0215  15.0281  15.0366  15.0727  15.0742
    15.0742  15.0750  15.0822  15.0853  15.0898  15.0921  15.1341  15.1417
    15.1443  15.1445  15.1471  15.1558  15.1654  15.1808  15.1834  15.1880
    15.1946  15.1978  15.2092  15.2276  15.2318  15.2389  15.2432  15.2449
    15.2504  15.2510  15.2543  15.2582  15.2591  15.2661  15.2758  15.2797
    15.3078  15.3133  15.3158  15.3165  15.3221  15.3265  15.3295  15.3301
    15.3307  15.3321  15.3377  15.3594  15.3655  15.3674  15.3695  15.3734
    15.3904  15.3995  15.4028  15.4380  15.4479  15.4524  15.5575  15.5577
    15.5655  15.6140  15.6548  15.6561  15.6585  15.6593  15.6625  15.6792
    15.7010  15.7163  15.7229  15.7259  15.7351  15.7388  15.7408  15.7417
    15.7465  15.7814  15.7879  15.7991  15.8000  15.8047  15.8061  15.9100
    15.9108  15.9227  15.9245  15.9319  15.9560  15.9564  15.9598  15.9650
    15.9653  15.9655  15.9716  15.9741  16.0034  16.0071  16.0261  16.0347
    16.0443  16.0679  16.0704  16.0747  16.0770  16.0808  16.0821  16.0900
    16.0959  16.1015  16.1048  16.1106  16.1143  16.1297  16.1356  16.1357
    16.1361  16.1367  16.1394  16.1471  16.2412  16.2457  16.2487  16.3162
    16.3199  16.3266  16.3288  16.3363  16.3387  16.4399  16.4519  16.4549
    16.4567  16.4568  16.4588  16.4969  16.5009  16.5051  16.5068  16.5090
    16.5092  16.5113  16.5273  16.5343  16.5622  16.5634  16.5667  16.6397
    16.6429  16.6648  16.6656  16.6684  16.6821  16.6855  16.6874  16.6895
    16.6919  16.7017  16.7364  16.7382  16.7502  16.7516  16.7574  16.7602
    16.7648  16.7738  16.7763  16.7826  16.7901  16.8322  16.8343  16.8402
    16.8404  16.8422  16.8455  16.9398  16.9417  16.9449  16.9455  16.9523
    16.9550  17.2331  17.2562  17.2938  17.4788  17.4828  18.1096  18.1610
    18.1634  18.1746  18.1788  18.1814  18.2015  18.2280  18.2357  18.2785
    18.2874  18.2985  18.3014  18.3025  18.3061  18.3379  18.3453  18.4091
    18.5413  18.5448  18.5508  18.5524  18.5567  18.6322  18.6420  18.6422
    18.6473  18.6505  18.7746  18.7833  18.7841  18.7846  18.7899  18.7976
    18.9535  18.9629  18.9672  18.9933  18.9981  19.0110  19.0206  19.0343
    19.0473  19.0498  19.0513  19.0559  19.1538  19.1635  19.1725  19.4235
    19.4648  19.4799  19.4864  19.7022  19.7203  19.7315  19.7340  19.7431
    19.7470  20.4807  20.4815  20.4868  20.5332  20.5482  20.6989  20.7139
    20.7870  20.9366  20.9377  20.9559  20.9580  20.9824  21.0332  21.0402

     occupation numbers 
     1.0000   1.0000   1.0000   1.0000   1.0000   1.0000   1.0000   1.0000
     1.0000   1.0000   1.0000   1.0000   1.0000   1.0000   1.0000   1.0000
     1.0000   1.0000   1.0000   1.0000   1.0000   1.0000   1.0000   1.0000
     1.0000   1.0000   1.0000   1.0000   1.0000   1.0000   1.0000   1.0000
     1.0000   1.0000   1.0000   1.0000   1.0000   1.0000   1.0000   1.0000
     1.0000   1.0000   1.0000   1.0000   1.0000   1.0000   1.0000   1.0000
     1.0000   1.0000   1.0000   1.0000   1.0000   1.0000   1.0000   1.0000
     1.0000   1.0000   1.0000   1.0000   1.0000   1.0000   1.0000   1.0000
     1.0000   1.0000   1.0000   1.0000   1.0000   1.0000   1.0000   1.0000
     1.0000   1.0000   1.0000   1.0000   1.0000   1.0000   1.0000   1.0000
     1.0000   1.0000   1.0000   1.0000   1.0000   1.0000   1.0000   1.0000
     1.0000   1.0000   1.0000   1.0000   1.0000   1.0000   1.0000   1.0000
     1.0000   1.0000   1.0000   1.0000   1.0000   1.0000   1.0000   1.0000
     1.0000   1.0000   1.0000   1.0000   1.0000   1.0000   1.0000   1.0000
     1.0000   1.0000   1.0000   1.0000   1.0000   1.0000   1.0000   1.0000
     1.0000   1.0000   1.0000   1.0000   1.0000   1.0000   1.0000   1.0000
     1.0000   1.0000   1.0000   1.0000   1.0000   1.0000   1.0000   1.0000
     1.0000   1.0000   1.0000   1.0000   1.0000   1.0000   1.0000   1.0000
     1.0000   1.0000   1.0000   1.0000   1.0000   1.0000   1.0000   1.0000
     1.0000   1.0000   1.0000   1.0000   1.0000   1.0000   1.0000   1.0000
     1.0000   1.0000   1.0000   1.0000   1.0000   1.0000   1.0000   1.0000
     1.0000   1.0000   1.0000   1.0000   1.0000   1.0000   1.0000   1.0000
     1.0000   1.0000   1.0000   1.0000   1.0000   1.0000   1.0000   1.0000
     1.0000   1.0000   1.0000   1.0000   1.0000   1.0000   1.0000   1.0000
     1.0000   1.0000   1.0000   1.0000   1.0000   1.0000   1.0000   1.0000
     1.0000   1.0000   1.0000   1.0000   1.0000   1.0000   1.0000   1.0000
     1.0000   1.0000   1.0000   1.0000   1.0000   1.0000   1.0000   1.0000
     1.0000   1.0000   1.0000   1.0000   1.0000   1.0000   1.0000   1.0000
     1.0000   1.0000   1.0000   1.0000   1.0000   1.0000   1.0000   1.0000
     1.0000   1.0000   1.0000   1.0000   1.0000   1.0000   1.0000   1.0000
     1.0000   1.0000   1.0000   1.0000   1.0000   1.0000   1.0000   1.0000
     1.0000   1.0000   1.0000   1.0000   1.0000   1.0000   1.0000   1.0000
     1.0000   1.0000   1.0000   1.0000   1.0000   1.0000   1.0000   1.0000
     1.0000   1.0000   1.0000   1.0000   1.0000   1.0000   1.0000   1.0000
     1.0000   1.0000   1.0000   1.0000   1.0000   1.0000   1.0000   1.0000
     1.0000   1.0000   1.0000   1.0000   1.0000   1.0000   1.0000   1.0000
     1.0000   1.0000   1.0000   1.0000   1.0000   1.0000   1.0000   1.0000
     1.0000   1.0000   1.0000   1.0000   1.0000   1.0000   1.0000   1.0000
     1.0000   1.0000   1.0000   1.0000   1.0000   1.0000   1.0000   1.0000
     1.0000   1.0000   1.0000   1.0000   1.0000   1.0000   1.0000   1.0000
     1.0000   1.0000   1.0000   1.0000   1.0000   1.0000   1.0000   1.0000
     1.0000   1.0000   1.0000   1.0000   1.0000   1.0000   1.0000   1.0000
     1.0000   1.0000   1.0000   1.0000   1.0000   1.0000   1.0000   1.0000
     1.0000   1.0000   1.0000   1.0000   1.0000   1.0000   1.0000   1.0000
     1.0000   1.0000   1.0000   1.0000   1.0000   1.0000   1.0000   1.0000
     1.0000   1.0000   1.0000   1.0000   1.0000   1.0000   1.0000   1.0000
     1.0000   1.0000   1.0000   1.0000   1.0000   1.0000   1.0000   1.0000
     1.0000   1.0000   1.0000   1.0000   1.0000   1.0000   1.0000   1.0000
     1.0000   1.0000   1.0000   1.0000   1.0000   1.0000   1.0000   1.0000
     1.0000   1.0000   1.0000   1.0000   1.0000   1.0000   1.0000   1.0000
     1.0000   1.0000   1.0000   1.0000   1.0000   1.0000   1.0000   1.0000
     1.0000   1.0000   1.0000   1.0000   1.0000   1.0000   1.0000   1.0000
     1.0000   1.0000   1.0000   1.0000   1.0000   1.0000   1.0000   1.0000
     1.0000   1.0000   1.0000   1.0000   1.0000   1.0000   1.0000   1.0000
     1.0000   1.0000   1.0000   1.0000   1.0000   1.0000   1.0000   1.0000
     1.0000   1.0000   1.0000   1.0000   1.0000   1.0000   1.0000   1.0000
     1.0000   1.0000   1.0000   1.0000   1.0000   1.0000   1.0000   1.0000
     1.0000   1.0000   1.0000   1.0000   1.0000   1.0000   1.0000   1.0000
     1.0000   1.0000   1.0000   1.0000   1.0000   1.0000   1.0000   1.0000
     1.0000   1.0000   1.0000   1.0000   1.0000   1.0000   1.0000   1.0000
     1.0000   1.0000   1.0000   1.0000   1.0000   1.0000   1.0000   1.0000
     1.0000   1.0000   1.0000   1.0000   1.0000   1.0000   1.0000   1.0000
     1.0000   1.0000   1.0000   1.0000   1.0000   1.0000   1.0000   1.0000
     1.0000   1.0000   1.0000   1.0000   1.0000   1.0000   1.0000   1.0000
     1.0000   1.0000   1.0000   1.0000   1.0000   1.0000   1.0000   1.0000
     1.0000   1.0000   1.0000   1.0000   1.0000   1.0000   1.0000   1.0000
     1.0000   1.0000   1.0000   1.0000   1.0000   1.0000   1.0000   1.0000
     1.0000   1.0000   1.0000   1.0000   1.0000   1.0000   1.0000   1.0000
     1.0000   1.0000   1.0000   1.0000   1.0000   1.0000   1.0000   1.0000
     1.0000   1.0000   1.0000   1.0000   1.0000   1.0000   1.0000   1.0000
     1.0000   1.0000   1.0000   1.0000   1.0000   1.0000   1.0000   1.0000
     1.0000   1.0000   1.0000   1.0000   1.0000   1.0000   1.0000   1.0000
     1.0000   1.0000   1.0000   1.0000   1.0000   1.0000   1.0000   1.0000
     1.0000   1.0000   1.0000   1.0000   1.0000   1.0000   1.0000   1.0000
     1.0000   1.0000   1.0000   1.0000   1.0000   1.0000   1.0000   1.0000
     1.0000   1.0000   1.0000   1.0000   1.0000   1.0000   1.0000   1.0000
     1.0000   1.0000   1.0000   1.0000   1.0000   1.0000   1.0000   1.0000
     1.0000   1.0000   1.0000   1.0000   1.0000   1.0000   1.0000   1.0000
     1.0000   1.0000   1.0000   1.0000   1.0000   1.0000   1.0000   1.0000
     1.0000   1.0000   1.0000   1.0000   1.0000   1.0000   1.0000   1.0000
     1.0000   1.0000   1.0000   1.0000   1.0000   1.0000   1.0000   1.0000
     1.0000   1.0000   1.0000   1.0000   1.0000   1.0000   1.0000   1.0000
     1.0000   1.0000   1.0000   1.0000   1.0000   1.0000   1.0000   1.0000
     1.0000   1.0000   1.0000   1.0000   1.0000   1.0000   1.0000   1.0000
     1.0000   1.0000   1.0000   0.9999   0.9999   0.9999   0.9999   0.9999
     0.9999   0.9999   0.9998   0.9998   0.9996   0.9996   0.9996   0.9985
     0.9985   0.9978   0.9977   0.9976   0.9971   0.9969   0.9968   0.9967
     0.9966   0.9960   0.9933   0.9931   0.9918   0.9917   0.9910   0.9906
     0.9900   0.9887   0.9883   0.9872   0.9859   0.9759   0.9752   0.9734
     0.9733   0.9728   0.9717   0.9215   0.9201   0.9176   0.9171   0.9116
     0.9093   0.4567   0.4096   0.3358   0.0829   0.0798   0.0000   0.0000
     0.0000   0.0000   0.0000   0.0000   0.0000   0.0000   0.0000   0.0000
     0.0000   0.0000   0.0000   0.0000   0.0000   0.0000   0.0000   0.0000
     0.0000   0.0000   0.0000   0.0000   0.0000   0.0000   0.0000   0.0000
     0.0000   0.0000   0.0000   0.0000   0.0000   0.0000   0.0000   0.0000
     0.0000   0.0000   0.0000   0.0000   0.0000   0.0000   0.0000   0.0000
     0.0000   0.0000   0.0000   0.0000   0.0000   0.0000   0.0000   0.0000
     0.0000   0.0000   0.0000   0.0000   0.0000   0.0000   0.0000   0.0000
     0.0000   0.0000   0.0000   0.0000   0.0000   0.0000   0.0000   0.0000
     0.0000   0.0000   0.0000   0.0000   0.0000   0.0000   0.0000   0.0000

          k = 0.0000 0.0000 0.2850 (100651 PWs)   bands (ev):

   -71.1988 -71.1924 -71.1921 -71.1809 -71.1805 -71.1795 -71.1793 -71.1791
   -71.1789 -71.1759 -71.1758 -71.1741 -71.1739 -71.1720 -71.1718 -71.1717
   -71.1714 -71.1713 -71.1712 -71.1711 -71.1710 -71.1707 -71.1705 -71.1688
   -71.1676 -71.1674 -71.1499 -71.1497 -71.1494 -71.1492 -71.1348 -71.1347
   -71.1343 -71.1341 -71.1333 -71.1332 -70.0716 -70.0715 -70.0189 -70.0188
   -70.0182 -70.0181 -70.0106 -70.0105 -70.0101 -70.0100 -70.0098 -70.0097
   -70.0060 -70.0057 -70.0056 -70.0012 -70.0003 -69.9988 -69.9987 -69.9984
   -69.9983 -69.9983 -69.9982 -69.9979 -69.9964 -69.9962 -69.9960 -69.9959
   -69.9843 -69.9796 -69.9789 -69.9747 -69.9683 -69.9682 -69.9247 -69.8930
   -37.3421 -37.3266 -37.3260 -37.3132 -37.3127 -37.3117 -37.3116 -37.3111
   -37.3101 -37.3092 -37.3090 -37.3088 -37.3077 -37.3059 -37.3058 -37.3055
   -37.3049 -37.3046 -37.3044 -37.3017 -37.3015 -37.3004 -37.2996 -37.2995
   -37.2968 -37.2963 -37.2828 -37.2820 -37.2788 -37.2783 -37.2667 -37.2658
   -37.2621 -37.2615 -37.2549 -37.2521 -37.2378 -37.2347 -37.2340 -37.2300
   -37.2260 -37.2237 -37.2234 -37.2232 -37.2229 -37.2226 -37.2223 -37.2194
   -37.2183 -37.2175 -37.2172 -37.2168 -37.2164 -37.2156 -37.2153 -37.2151
   -37.2136 -37.2130 -37.2128 -37.2126 -37.2103 -37.2101 -37.2100 -37.2093
   -37.2090 -37.2087 -37.2086 -37.2083 -37.2054 -37.2046 -37.2038 -37.2038
   -37.2028 -37.2026 -37.2024 -37.2023 -37.2021 -37.2015 -37.2010 -37.1995
   -37.1983 -37.1975 -37.1971 -37.1954 -37.1948 -37.1944 -37.1935 -37.1928
   -37.1907 -37.1899 -37.1887 -37.1884 -37.1833 -37.1826 -37.1809 -37.1807
   -37.1797 -37.1791 -37.1778 -37.1772 -37.1770 -37.1765 -37.1692 -37.1685
   -37.1591 -37.1587 -37.1586 -37.1577 -36.3315 -36.3311 -36.3011 -36.3007
   -36.2993 -36.2990 -36.2989 -36.2983 -36.2977 -36.2972 -36.2784 -36.2723
   -36.2392 -36.2390 -36.2197 -36.2194 -36.2169 -36.2164 -36.2112 -36.2109
   -36.2108 -36.2103 -36.2101 -36.2099 -36.2082 -36.2082 -36.2079 -36.2075
   -36.2074 -36.1998 -36.1991 -36.1939 -36.1936 -36.1784 -36.1675 -36.1079
   -36.1076 -36.1076 -36.0958 -36.0926 -36.0735 -36.0713 -36.0707 -36.0703
   -36.0655 -36.0654 -36.0603 -36.0599 -36.0598 -36.0592 -36.0590 -36.0588
   -36.0560 -36.0556 -36.0556 -36.0551 -36.0547 -36.0547 -36.0516 -36.0508
   -36.0469 -36.0376 -36.0370 -36.0356 -36.0352 -36.0337 -36.0323 -36.0318
   -36.0276 -36.0270 -36.0264 -36.0259 -36.0258 -36.0254 -36.0252 -36.0246
   -36.0241 -36.0232 -36.0227 -36.0209 -36.0192 -36.0185 -36.0182 -36.0164
   -36.0154 -36.0147 -36.0137 -36.0134 -36.0125 -36.0116 -36.0112 -36.0110
   -36.0108 -36.0105 -36.0102 -36.0101 -36.0089 -36.0083 -35.9905 -35.9899
   -35.9820 -35.9787 -35.9678 -35.9673 -35.9669 -35.9564 -35.9422 -35.9011
     3.3477   3.9074   4.3203   4.3991   4.4029   4.4567   4.4964   4.5042
     4.7721   4.8331   4.8337   4.8444   4.9107   4.9349   4.9428   5.4106
     5.4341   5.4357   5.4408   5.4439   5.4476   5.4784   5.4854   5.5132
     5.5218   5.6510   5.6712   5.6842   5.6870   5.6919   5.9095   5.9124
     5.9214   5.9231   6.0964   6.2915   8.5857   9.5740   9.5763   9.6844
     9.8333   9.8340   9.9240   9.9823  10.0351  10.0360  10.0381  10.0397
    10.0452  10.2157  10.4458  10.4981  10.6911  10.6929  10.6971  10.7002
    10.7051  10.7354  10.7465  10.7474  10.7548  10.7704  10.8041  10.8081
    10.8130  10.8167  10.8186  10.9127  10.9440  10.9575  10.9815  11.1604
    11.2336  11.2783  11.2799  11.3369  11.3593  11.4742  11.5098  11.5117
    11.5228  11.5295  11.5298  11.7701  11.7711  11.8632  11.8685  11.8723
    11.8753  11.9684  11.9829  11.9869  11.9964  12.0389  12.0507  12.0651
    12.0826  12.1017  12.1051  12.1079  12.1093  12.1202  12.1276  12.2253
    12.2699  12.2703  12.3056  12.3434  12.3463  12.3502  12.3565  12.3596
    12.3739  12.3809  12.3935  12.4015  12.4073  12.4158  12.4233  12.4249
    12.4359  12.4716  12.4753  12.4882  12.5678  12.6226  12.6333  12.6624
    12.6661  12.6741  12.7100  12.7166  12.7198  12.7258  12.7332  12.7371
    12.8657  12.8790  12.9992  13.0110  13.0173  13.1205  13.2083  13.2187
    13.2249  13.4807  13.4870  13.5618  13.5621  13.5687  13.5730  13.5897
    13.6819  13.6849  13.7026  13.7692  13.7696  13.7707  13.7858  13.7866
    13.7911  13.8014  13.8141  13.8189  13.8224  13.8233  13.8266  13.8315
    13.8387  13.8438  13.8478  13.8529  13.8567  13.8618  13.8770  13.9078
    13.9115  13.9195  13.9366  13.9368  13.9431  13.9435  13.9447  13.9527
    13.9554  13.9555  13.9739  13.9781  13.9852  13.9886  14.0306  14.0369
    14.0433  14.0604  14.0607  14.0628  14.0705  14.0795  14.0897  14.1095
    14.1222  14.1251  14.1286  14.1406  14.1417  14.1564  14.1936  14.2038
    14.2055  14.2088  14.2089  14.2229  14.2447  14.3135  14.3296  14.3322
    14.3579  14.3606  14.4664  14.4710  14.4742  14.4887  14.5137  14.5396
    14.5468  14.5673  14.6042  14.6416  14.6586  14.6654  14.6662  14.6752
    14.6793  14.7980  14.8001  14.8357  14.8555  14.8695  14.8713  14.8758
    14.8788  14.9370  14.9413  14.9474  14.9497  14.9600  14.9671  14.9820
    14.9925  15.0088  15.0118  15.0257  15.0287  15.0289  15.0470  15.0631
    15.0668  15.0694  15.0695  15.0763  15.0800  15.0828  15.0975  15.1038
    15.1116  15.1198  15.1230  15.1337  15.1413  15.1426  15.1467  15.1533
    15.1590  15.1614  15.1713  15.1781  15.1812  15.1861  15.1884  15.1996
    15.2248  15.2297  15.2312  15.2635  15.2728  15.2743  15.2941  15.2980
    15.3049  15.3052  15.3155  15.3424  15.3445  15.3447  15.3728  15.3762
    15.3771  15.3868  15.3877  15.3928  15.4112  15.4396  15.4400  15.4501
    15.4542  15.4560  15.4582  15.4685  15.4723  15.4791  15.5517  15.5550
    15.5603  15.6313  15.6386  15.6461  15.6468  15.6862  15.6896  15.6929
    15.6979  15.7077  15.7110  15.7389  15.7400  15.7465  15.7470  15.7531
    15.7604  15.7609  15.7742  15.8190  15.8219  15.8301  15.8346  15.8558
    15.8564  15.9139  15.9436  15.9464  15.9495  15.9551  15.9556  15.9599
    15.9664  15.9665  15.9696  15.9732  15.9822  15.9843  15.9958  15.9993
    16.0032  16.0064  16.0075  16.0149  16.0187  16.0221  16.0261  16.0264
    16.0310  16.0568  16.0582  16.0798  16.0887  16.1022  16.1047  16.1333
    16.1416  16.1417  16.2150  16.2167  16.2191  16.2192  16.2222  16.2270
    16.3903  16.3905  16.4012  16.4041  16.4046  16.4050  16.4156  16.4169
    16.4183  16.4452  16.4466  16.4468  16.4533  16.4724  16.5146  16.5188
    16.5198  16.5446  16.5498  16.5499  16.5619  16.5665  16.5673  16.5695
    16.5727  16.5757  16.6359  16.6419  16.6420  16.6481  16.6830  16.6860
    16.7060  16.7111  16.7142  16.7237  16.7252  16.7292  16.7308  16.7324
    16.7335  16.8022  16.8117  16.8334  16.8471  16.8798  16.9037  16.9188
    16.9604  16.9857  16.9924  17.0156  17.0220  17.0296  17.0329  17.2115
    17.2229  17.2295  17.2460  17.3731  17.4616  17.5849  17.9441  17.9603
    17.9618  17.9965  18.0075  18.0112  18.0897  18.1169  18.1291  18.1301
    18.2372  18.2576  18.2651  18.3175  18.3187  18.3271  18.4041  18.4081
    18.4113  18.4666  18.6488  18.6532  18.6539  18.6583  18.6866  18.7023
    18.7075  18.7081  18.7101  18.7149  18.7231  18.7238  18.7265  18.8338
    18.8969  18.9226  18.9619  18.9666  18.9807  19.0339  19.0408  19.0464
    19.0581  19.0636  19.0674  19.2469  19.2565  19.2641  19.3509  19.3511
    19.3708  19.6113  19.6237  19.6338  19.6404  19.6567  19.6614  20.0015
    20.0411  20.0574  20.0701  20.0724  20.0735  20.1239  20.4666  20.4718
    20.6186  20.6463  20.8265  21.0757  21.1129  21.1218  21.1387  21.1486

     occupation numbers 
     1.0000   1.0000   1.0000   1.0000   1.0000   1.0000   1.0000   1.0000
     1.0000   1.0000   1.0000   1.0000   1.0000   1.0000   1.0000   1.0000
     1.0000   1.0000   1.0000   1.0000   1.0000   1.0000   1.0000   1.0000
     1.0000   1.0000   1.0000   1.0000   1.0000   1.0000   1.0000   1.0000
     1.0000   1.0000   1.0000   1.0000   1.0000   1.0000   1.0000   1.0000
     1.0000   1.0000   1.0000   1.0000   1.0000   1.0000   1.0000   1.0000
     1.0000   1.0000   1.0000   1.0000   1.0000   1.0000   1.0000   1.0000
     1.0000   1.0000   1.0000   1.0000   1.0000   1.0000   1.0000   1.0000
     1.0000   1.0000   1.0000   1.0000   1.0000   1.0000   1.0000   1.0000
     1.0000   1.0000   1.0000   1.0000   1.0000   1.0000   1.0000   1.0000
     1.0000   1.0000   1.0000   1.0000   1.0000   1.0000   1.0000   1.0000
     1.0000   1.0000   1.0000   1.0000   1.0000   1.0000   1.0000   1.0000
     1.0000   1.0000   1.0000   1.0000   1.0000   1.0000   1.0000   1.0000
     1.0000   1.0000   1.0000   1.0000   1.0000   1.0000   1.0000   1.0000
     1.0000   1.0000   1.0000   1.0000   1.0000   1.0000   1.0000   1.0000
     1.0000   1.0000   1.0000   1.0000   1.0000   1.0000   1.0000   1.0000
     1.0000   1.0000   1.0000   1.0000   1.0000   1.0000   1.0000   1.0000
     1.0000   1.0000   1.0000   1.0000   1.0000   1.0000   1.0000   1.0000
     1.0000   1.0000   1.0000   1.0000   1.0000   1.0000   1.0000   1.0000
     1.0000   1.0000   1.0000   1.0000   1.0000   1.0000   1.0000   1.0000
     1.0000   1.0000   1.0000   1.0000   1.0000   1.0000   1.0000   1.0000
     1.0000   1.0000   1.0000   1.0000   1.0000   1.0000   1.0000   1.0000
     1.0000   1.0000   1.0000   1.0000   1.0000   1.0000   1.0000   1.0000
     1.0000   1.0000   1.0000   1.0000   1.0000   1.0000   1.0000   1.0000
     1.0000   1.0000   1.0000   1.0000   1.0000   1.0000   1.0000   1.0000
     1.0000   1.0000   1.0000   1.0000   1.0000   1.0000   1.0000   1.0000
     1.0000   1.0000   1.0000   1.0000   1.0000   1.0000   1.0000   1.0000
     1.0000   1.0000   1.0000   1.0000   1.0000   1.0000   1.0000   1.0000
     1.0000   1.0000   1.0000   1.0000   1.0000   1.0000   1.0000   1.0000
     1.0000   1.0000   1.0000   1.0000   1.0000   1.0000   1.0000   1.0000
     1.0000   1.0000   1.0000   1.0000   1.0000   1.0000   1.0000   1.0000
     1.0000   1.0000   1.0000   1.0000   1.0000   1.0000   1.0000   1.0000
     1.0000   1.0000   1.0000   1.0000   1.0000   1.0000   1.0000   1.0000
     1.0000   1.0000   1.0000   1.0000   1.0000   1.0000   1.0000   1.0000
     1.0000   1.0000   1.0000   1.0000   1.0000   1.0000   1.0000   1.0000
     1.0000   1.0000   1.0000   1.0000   1.0000   1.0000   1.0000   1.0000
     1.0000   1.0000   1.0000   1.0000   1.0000   1.0000   1.0000   1.0000
     1.0000   1.0000   1.0000   1.0000   1.0000   1.0000   1.0000   1.0000
     1.0000   1.0000   1.0000   1.0000   1.0000   1.0000   1.0000   1.0000
     1.0000   1.0000   1.0000   1.0000   1.0000   1.0000   1.0000   1.0000
     1.0000   1.0000   1.0000   1.0000   1.0000   1.0000   1.0000   1.0000
     1.0000   1.0000   1.0000   1.0000   1.0000   1.0000   1.0000   1.0000
     1.0000   1.0000   1.0000   1.0000   1.0000   1.0000   1.0000   1.0000
     1.0000   1.0000   1.0000   1.0000   1.0000   1.0000   1.0000   1.0000
     1.0000   1.0000   1.0000   1.0000   1.0000   1.0000   1.0000   1.0000
     1.0000   1.0000   1.0000   1.0000   1.0000   1.0000   1.0000   1.0000
     1.0000   1.0000   1.0000   1.0000   1.0000   1.0000   1.0000   1.0000
     1.0000   1.0000   1.0000   1.0000   1.0000   1.0000   1.0000   1.0000
     1.0000   1.0000   1.0000   1.0000   1.0000   1.0000   1.0000   1.0000
     1.0000   1.0000   1.0000   1.0000   1.0000   1.0000   1.0000   1.0000
     1.0000   1.0000   1.0000   1.0000   1.0000   1.0000   1.0000   1.0000
     1.0000   1.0000   1.0000   1.0000   1.0000   1.0000   1.0000   1.0000
     1.0000   1.0000   1.0000   1.0000   1.0000   1.0000   1.0000   1.0000
     1.0000   1.0000   1.0000   1.0000   1.0000   1.0000   1.0000   1.0000
     1.0000   1.0000   1.0000   1.0000   1.0000   1.0000   1.0000   1.0000
     1.0000   1.0000   1.0000   1.0000   1.0000   1.0000   1.0000   1.0000
     1.0000   1.0000   1.0000   1.0000   1.0000   1.0000   1.0000   1.0000
     1.0000   1.0000   1.0000   1.0000   1.0000   1.0000   1.0000   1.0000
     1.0000   1.0000   1.0000   1.0000   1.0000   1.0000   1.0000   1.0000
     1.0000   1.0000   1.0000   1.0000   1.0000   1.0000   1.0000   1.0000
     1.0000   1.0000   1.0000   1.0000   1.0000   1.0000   1.0000   1.0000
     1.0000   1.0000   1.0000   1.0000   1.0000   1.0000   1.0000   1.0000
     1.0000   1.0000   1.0000   1.0000   1.0000   1.0000   1.0000   1.0000
     1.0000   1.0000   1.0000   1.0000   1.0000   1.0000   1.0000   1.0000
     1.0000   1.0000   1.0000   1.0000   1.0000   1.0000   1.0000   1.0000
     1.0000   1.0000   1.0000   1.0000   1.0000   1.0000   1.0000   1.0000
     1.0000   1.0000   1.0000   1.0000   1.0000   1.0000   1.0000   1.0000
     1.0000   1.0000   1.0000   1.0000   1.0000   1.0000   1.0000   1.0000
     1.0000   1.0000   1.0000   1.0000   1.0000   1.0000   1.0000   1.0000
     1.0000   1.0000   1.0000   1.0000   1.0000   1.0000   1.0000   1.0000
     1.0000   1.0000   1.0000   1.0000   1.0000   1.0000   1.0000   1.0000
     1.0000   1.0000   1.0000   1.0000   1.0000   1.0000   1.0000   1.0000
     1.0000   1.0000   1.0000   1.0000   1.0000   1.0000   1.0000   1.0000
     1.0000   1.0000   1.0000   1.0000   1.0000   1.0000   1.0000   1.0000
     1.0000   1.0000   1.0000   1.0000   1.0000   1.0000   1.0000   1.0000
     1.0000   1.0000   1.0000   1.0000   1.0000   1.0000   1.0000   1.0000
     1.0000   1.0000   1.0000   1.0000   1.0000   1.0000   1.0000   1.0000
     1.0000   1.0000   1.0000   1.0000   1.0000   1.0000   1.0000   1.0000
     1.0000   1.0000   1.0000   1.0000   1.0000   1.0000   1.0000   1.0000
     1.0000   1.0000   1.0000   1.0000   1.0000   1.0000   1.0000   1.0000
     1.0000   1.0000   1.0000   1.0000   1.0000   1.0000   1.0000   1.0000
     1.0000   1.0000   1.0000   1.0000   1.0000   1.0000   1.0000   1.0000
     1.0000   1.0000   1.0000   1.0000   1.0000   1.0000   1.0000   1.0000
     1.0000   1.0000   1.0000   1.0000   1.0000   1.0000   1.0000   1.0000
     1.0000   1.0000   1.0000   1.0000   1.0000   0.9999   0.9999   0.9998
     0.9998   0.9997   0.9997   0.9997   0.9996   0.9996   0.9996   0.9996
     0.9996   0.9995   0.9986   0.9985   0.9985   0.9983   0.9970   0.9969
     0.9957   0.9954   0.9952   0.9944   0.9943   0.9940   0.9938   0.9937
     0.9936   0.9834   0.9813   0.9755   0.9711   0.9579   0.9456   0.9363
     0.9046   0.8804   0.8733   0.8466   0.8385   0.8286   0.8243   0.5015
     0.4779   0.4642   0.4301   0.2015   0.0975   0.0264   0.0001   0.0001
     0.0000   0.0000   0.0000   0.0000   0.0000   0.0000   0.0000   0.0000
     0.0000   0.0000   0.0000   0.0000   0.0000   0.0000   0.0000   0.0000
     0.0000   0.0000   0.0000   0.0000   0.0000   0.0000   0.0000   0.0000
     0.0000   0.0000   0.0000   0.0000   0.0000   0.0000   0.0000   0.0000
     0.0000   0.0000   0.0000   0.0000   0.0000   0.0000   0.0000   0.0000
     0.0000   0.0000   0.0000   0.0000   0.0000   0.0000   0.0000   0.0000
     0.0000   0.0000   0.0000   0.0000   0.0000   0.0000   0.0000   0.0000
     0.0000   0.0000   0.0000   0.0000   0.0000   0.0000   0.0000   0.0000
     0.0000   0.0000   0.0000   0.0000   0.0000   0.0000   0.0000   0.0000

          k = 0.0000 0.0000-0.5700 (100616 PWs)   bands (ev):

   -71.1988 -71.1924 -71.1921 -71.1809 -71.1805 -71.1795 -71.1793 -71.1791
   -71.1790 -71.1759 -71.1758 -71.1741 -71.1739 -71.1720 -71.1719 -71.1717
   -71.1714 -71.1713 -71.1712 -71.1711 -71.1710 -71.1707 -71.1705 -71.1688
   -71.1676 -71.1674 -71.1499 -71.1497 -71.1494 -71.1492 -71.1348 -71.1347
   -71.1343 -71.1341 -71.1333 -71.1332 -70.0716 -70.0715 -70.0189 -70.0188
   -70.0182 -70.0181 -70.0106 -70.0105 -70.0101 -70.0100 -70.0098 -70.0097
   -70.0060 -70.0057 -70.0056 -70.0012 -70.0003 -69.9988 -69.9987 -69.9984
   -69.9983 -69.9983 -69.9982 -69.9979 -69.9964 -69.9962 -69.9960 -69.9959
   -69.9843 -69.9796 -69.9789 -69.9747 -69.9683 -69.9682 -69.9247 -69.8930
   -37.3421 -37.3266 -37.3260 -37.3137 -37.3133 -37.3120 -37.3116 -37.3111
   -37.3106 -37.3095 -37.3081 -37.3077 -37.3071 -37.3064 -37.3060 -37.3053
   -37.3052 -37.3048 -37.3037 -37.3009 -37.3006 -37.3003 -37.3001 -37.2997
   -37.2974 -37.2969 -37.2826 -37.2819 -37.2789 -37.2784 -37.2665 -37.2657
   -37.2621 -37.2616 -37.2548 -37.2522 -37.2378 -37.2347 -37.2340 -37.2300
   -37.2260 -37.2238 -37.2233 -37.2232 -37.2229 -37.2226 -37.2223 -37.2194
   -37.2183 -37.2175 -37.2173 -37.2169 -37.2163 -37.2157 -37.2153 -37.2151
   -37.2136 -37.2130 -37.2128 -37.2125 -37.2103 -37.2101 -37.2100 -37.2094
   -37.2089 -37.2088 -37.2086 -37.2082 -37.2054 -37.2046 -37.2038 -37.2038
   -37.2027 -37.2026 -37.2024 -37.2023 -37.2021 -37.2014 -37.2009 -37.1995
   -37.1983 -37.1975 -37.1970 -37.1954 -37.1948 -37.1944 -37.1935 -37.1928
   -37.1907 -37.1899 -37.1887 -37.1884 -37.1833 -37.1826 -37.1809 -37.1807
   -37.1797 -37.1791 -37.1778 -37.1772 -37.1770 -37.1764 -37.1693 -37.1684
   -37.1591 -37.1587 -37.1586 -37.1577 -36.3315 -36.3311 -36.3011 -36.3007
   -36.2993 -36.2990 -36.2989 -36.2982 -36.2977 -36.2972 -36.2784 -36.2723
   -36.2392 -36.2390 -36.2196 -36.2195 -36.2169 -36.2164 -36.2112 -36.2109
   -36.2108 -36.2104 -36.2102 -36.2099 -36.2082 -36.2082 -36.2078 -36.2075
   -36.2074 -36.1998 -36.1991 -36.1939 -36.1936 -36.1784 -36.1675 -36.1079
   -36.1076 -36.1076 -36.0959 -36.0925 -36.0735 -36.0712 -36.0708 -36.0703
   -36.0655 -36.0653 -36.0603 -36.0599 -36.0598 -36.0592 -36.0591 -36.0588
   -36.0560 -36.0556 -36.0556 -36.0551 -36.0547 -36.0547 -36.0516 -36.0508
   -36.0468 -36.0376 -36.0372 -36.0356 -36.0352 -36.0334 -36.0326 -36.0319
   -36.0277 -36.0269 -36.0264 -36.0259 -36.0258 -36.0254 -36.0252 -36.0245
   -36.0241 -36.0233 -36.0229 -36.0201 -36.0192 -36.0188 -36.0185 -36.0169
   -36.0157 -36.0149 -36.0136 -36.0132 -36.0118 -36.0112 -36.0112 -36.0110
   -36.0107 -36.0106 -36.0105 -36.0101 -36.0090 -36.0086 -35.9905 -35.9899
   -35.9821 -35.9786 -35.9678 -35.9673 -35.9669 -35.9564 -35.9422 -35.9011
     3.5401   3.5901   4.4325   4.5577   4.5698   4.5709   4.5710   4.5784
     4.6191   4.6648   4.6672   4.6725   4.6765   4.6798   5.1558   5.4812
     5.5229   5.5338   5.5377   5.5435   5.5436   5.5484   5.5642   5.5714
     5.5732   5.5835   5.5845   5.5944   5.6246   5.6335   5.9178   5.9238
     5.9362   5.9884   5.9980   6.3240   8.5810   9.7154   9.7159   9.7308
     9.7631   9.7708   9.7719   9.7773   9.7837   9.7985   9.8592   9.8622
     9.8623  10.2028  10.6207  10.6362  10.6378  10.6418  10.6438  10.6476
    10.6481  10.6950  10.7921  10.7925  10.7954  10.8009  10.8046  10.8250
    10.8283  10.8317  10.8371  10.8416  10.8550  11.0585  11.1287  11.1295
    11.1418  11.3055  11.4185  11.4206  11.5823  11.5900  11.7152  11.7891
    11.7917  11.8118  11.8179  11.8188  11.8221  11.8231  11.8443  11.9355
    12.0194  12.0255  12.0369  12.0569  12.1560  12.1703  12.1720  12.1887
    12.1913  12.2224  12.2230  12.2246  12.2257  12.2499  12.2581  12.2638
    12.2679  12.2723  12.2733  12.2734  12.2765  12.2929  12.2993  12.3022
    12.3027  12.3058  12.3079  12.3101  12.3196  12.3216  12.3265  12.3653
    12.3656  12.3724  12.3731  12.3733  12.3948  12.4376  12.4421  12.4496
    12.4525  12.4551  12.4688  12.6772  12.6853  12.6890  12.7597  12.7679
    12.7693  12.7901  13.1104  13.1437  13.1564  13.1588  13.1681  13.1736
    13.1839  13.4630  13.4805  13.6057  13.6091  13.6092  13.6183  13.6257
    13.6631  13.6959  13.6984  13.7009  13.7168  13.7787  13.7816  13.7840
    13.7966  13.8234  13.8261  13.8271  13.8279  13.8301  13.8306  13.8323
    13.8363  13.8378  13.8406  13.8415  13.8442  13.8551  13.8637  13.9129
    13.9158  13.9175  13.9271  13.9327  13.9369  13.9391  13.9405  13.9425
    13.9442  13.9450  13.9484  13.9515  13.9556  13.9559  13.9653  13.9726
    14.0106  14.0435  14.0446  14.0477  14.0502  14.0545  14.0557  14.0627
    14.0627  14.0690  14.0753  14.0832  14.0998  14.1993  14.2017  14.2053
    14.2054  14.2142  14.3457  14.3497  14.3498  14.3535  14.3536  14.3550
    14.3679  14.3688  14.4775  14.5047  14.5061  14.5078  14.5133  14.5150
    14.5155  14.5523  14.5780  14.5895  14.5907  14.5953  14.7964  14.8181
    14.8339  14.8460  14.8496  14.8496  14.8523  14.8697  14.8716  14.8753
    14.8761  14.8866  14.8873  14.8875  14.9458  14.9638  14.9715  14.9732
    14.9752  14.9795  14.9897  15.0271  15.0313  15.0363  15.0426  15.0443
    15.0522  15.0595  15.0620  15.0633  15.0646  15.0677  15.0697  15.0716
    15.0763  15.1275  15.1291  15.1322  15.1398  15.1467  15.1474  15.1492
    15.1591  15.1627  15.1661  15.1693  15.1719  15.1769  15.1842  15.1886
    15.1928  15.2015  15.2024  15.2030  15.2031  15.2821  15.2837  15.2936
    15.3656  15.3743  15.3745  15.3827  15.3992  15.4152  15.4196  15.4226
    15.4231  15.4244  15.4250  15.4317  15.4940  15.4950  15.4981  15.5027
    15.5045  15.5082  15.5121  15.5144  15.5146  15.5165  15.5180  15.5203
    15.5504  15.5558  15.5603  15.5726  15.6013  15.6424  15.6448  15.6496
    15.6511  15.6561  15.7084  15.7087  15.7103  15.7162  15.7255  15.7301
    15.8420  15.8472  15.8515  15.8579  15.8825  15.8893  15.8956  15.8983
    15.9013  15.9037  15.9070  15.9148  15.9283  15.9296  15.9297  15.9311
    15.9338  15.9339  15.9360  15.9369  15.9393  15.9410  15.9454  15.9477
    15.9512  15.9530  15.9545  16.0000  16.0082  16.0134  16.0171  16.0194
    16.0247  16.0358  16.0438  16.0610  16.0613  16.0682  16.0694  16.0916
    16.1019  16.1108  16.2058  16.2141  16.2176  16.3312  16.3332  16.3377
    16.3386  16.3427  16.3455  16.3776  16.3790  16.3800  16.3823  16.3850
    16.3895  16.4577  16.4578  16.4631  16.4689  16.4695  16.4764  16.5351
    16.5436  16.5460  16.5464  16.5508  16.5533  16.5615  16.5618  16.5629
    16.6209  16.6280  16.6417  16.6421  16.6438  16.6551  16.6642  16.6654
    16.6705  16.6731  16.6794  16.6824  16.6862  16.6923  16.6971  16.6996
    16.7189  16.7457  16.8331  16.8413  16.9185  16.9266  17.0147  17.0531
    17.0629  17.0649  17.0692  17.0816  17.2357  17.2840  17.2882  17.2904
    17.2985  17.2999  17.3060  17.3062  17.5339  17.6361  17.8380  17.8463
    17.8522  17.9863  17.9965  18.0016  18.0027  18.0093  18.0145  18.0341
    18.1472  18.1595  18.1691  18.1693  18.1727  18.1859  18.3133  18.3160
    18.3216  18.4090  18.4212  18.4583  18.4588  18.4620  18.4622  18.4742
    18.6172  18.6471  18.7495  18.7748  18.7765  18.9846  19.0208  19.0223
    19.0256  19.0275  19.0381  19.1095  19.2405  19.2443  19.2933  19.3042
    19.3951  19.4104  19.4167  19.4186  19.4204  19.4281  19.4282  19.4290
    19.4338  19.4365  19.4378  19.4402  19.4434  19.4448  19.4503  19.4670
    19.4848  19.5493  19.5658  19.5685  20.3130  20.3225  20.4077  20.4457
    20.4580  20.4629  20.8432  20.8795  20.8917  20.9823  21.5619  21.5712

     occupation numbers 
     1.0000   1.0000   1.0000   1.0000   1.0000   1.0000   1.0000   1.0000
     1.0000   1.0000   1.0000   1.0000   1.0000   1.0000   1.0000   1.0000
     1.0000   1.0000   1.0000   1.0000   1.0000   1.0000   1.0000   1.0000
     1.0000   1.0000   1.0000   1.0000   1.0000   1.0000   1.0000   1.0000
     1.0000   1.0000   1.0000   1.0000   1.0000   1.0000   1.0000   1.0000
     1.0000   1.0000   1.0000   1.0000   1.0000   1.0000   1.0000   1.0000
     1.0000   1.0000   1.0000   1.0000   1.0000   1.0000   1.0000   1.0000
     1.0000   1.0000   1.0000   1.0000   1.0000   1.0000   1.0000   1.0000
     1.0000   1.0000   1.0000   1.0000   1.0000   1.0000   1.0000   1.0000
     1.0000   1.0000   1.0000   1.0000   1.0000   1.0000   1.0000   1.0000
     1.0000   1.0000   1.0000   1.0000   1.0000   1.0000   1.0000   1.0000
     1.0000   1.0000   1.0000   1.0000   1.0000   1.0000   1.0000   1.0000
     1.0000   1.0000   1.0000   1.0000   1.0000   1.0000   1.0000   1.0000
     1.0000   1.0000   1.0000   1.0000   1.0000   1.0000   1.0000   1.0000
     1.0000   1.0000   1.0000   1.0000   1.0000   1.0000   1.0000   1.0000
     1.0000   1.0000   1.0000   1.0000   1.0000   1.0000   1.0000   1.0000
     1.0000   1.0000   1.0000   1.0000   1.0000   1.0000   1.0000   1.0000
     1.0000   1.0000   1.0000   1.0000   1.0000   1.0000   1.0000   1.0000
     1.0000   1.0000   1.0000   1.0000   1.0000   1.0000   1.0000   1.0000
     1.0000   1.0000   1.0000   1.0000   1.0000   1.0000   1.0000   1.0000
     1.0000   1.0000   1.0000   1.0000   1.0000   1.0000   1.0000   1.0000
     1.0000   1.0000   1.0000   1.0000   1.0000   1.0000   1.0000   1.0000
     1.0000   1.0000   1.0000   1.0000   1.0000   1.0000   1.0000   1.0000
     1.0000   1.0000   1.0000   1.0000   1.0000   1.0000   1.0000   1.0000
     1.0000   1.0000   1.0000   1.0000   1.0000   1.0000   1.0000   1.0000
     1.0000   1.0000   1.0000   1.0000   1.0000   1.0000   1.0000   1.0000
     1.0000   1.0000   1.0000   1.0000   1.0000   1.0000   1.0000   1.0000
     1.0000   1.0000   1.0000   1.0000   1.0000   1.0000   1.0000   1.0000
     1.0000   1.0000   1.0000   1.0000   1.0000   1.0000   1.0000   1.0000
     1.0000   1.0000   1.0000   1.0000   1.0000   1.0000   1.0000   1.0000
     1.0000   1.0000   1.0000   1.0000   1.0000   1.0000   1.0000   1.0000
     1.0000   1.0000   1.0000   1.0000   1.0000   1.0000   1.0000   1.0000
     1.0000   1.0000   1.0000   1.0000   1.0000   1.0000   1.0000   1.0000
     1.0000   1.0000   1.0000   1.0000   1.0000   1.0000   1.0000   1.0000
     1.0000   1.0000   1.0000   1.0000   1.0000   1.0000   1.0000   1.0000
     1.0000   1.0000   1.0000   1.0000   1.0000   1.0000   1.0000   1.0000
     1.0000   1.0000   1.0000   1.0000   1.0000   1.0000   1.0000   1.0000
     1.0000   1.0000   1.0000   1.0000   1.0000   1.0000   1.0000   1.0000
     1.0000   1.0000   1.0000   1.0000   1.0000   1.0000   1.0000   1.0000
     1.0000   1.0000   1.0000   1.0000   1.0000   1.0000   1.0000   1.0000
     1.0000   1.0000   1.0000   1.0000   1.0000   1.0000   1.0000   1.0000
     1.0000   1.0000   1.0000   1.0000   1.0000   1.0000   1.0000   1.0000
     1.0000   1.0000   1.0000   1.0000   1.0000   1.0000   1.0000   1.0000
     1.0000   1.0000   1.0000   1.0000   1.0000   1.0000   1.0000   1.0000
     1.0000   1.0000   1.0000   1.0000   1.0000   1.0000   1.0000   1.0000
     1.0000   1.0000   1.0000   1.0000   1.0000   1.0000   1.0000   1.0000
     1.0000   1.0000   1.0000   1.0000   1.0000   1.0000   1.0000   1.0000
     1.0000   1.0000   1.0000   1.0000   1.0000   1.0000   1.0000   1.0000
     1.0000   1.0000   1.0000   1.0000   1.0000   1.0000   1.0000   1.0000
     1.0000   1.0000   1.0000   1.0000   1.0000   1.0000   1.0000   1.0000
     1.0000   1.0000   1.0000   1.0000   1.0000   1.0000   1.0000   1.0000
     1.0000   1.0000   1.0000   1.0000   1.0000   1.0000   1.0000   1.0000
     1.0000   1.0000   1.0000   1.0000   1.0000   1.0000   1.0000   1.0000
     1.0000   1.0000   1.0000   1.0000   1.0000   1.0000   1.0000   1.0000
     1.0000   1.0000   1.0000   1.0000   1.0000   1.0000   1.0000   1.0000
     1.0000   1.0000   1.0000   1.0000   1.0000   1.0000   1.0000   1.0000
     1.0000   1.0000   1.0000   1.0000   1.0000   1.0000   1.0000   1.0000
     1.0000   1.0000   1.0000   1.0000   1.0000   1.0000   1.0000   1.0000
     1.0000   1.0000   1.0000   1.0000   1.0000   1.0000   1.0000   1.0000
     1.0000   1.0000   1.0000   1.0000   1.0000   1.0000   1.0000   1.0000
     1.0000   1.0000   1.0000   1.0000   1.0000   1.0000   1.0000   1.0000
     1.0000   1.0000   1.0000   1.0000   1.0000   1.0000   1.0000   1.0000
     1.0000   1.0000   1.0000   1.0000   1.0000   1.0000   1.0000   1.0000
     1.0000   1.0000   1.0000   1.0000   1.0000   1.0000   1.0000   1.0000
     1.0000   1.0000   1.0000   1.0000   1.0000   1.0000   1.0000   1.0000
     1.0000   1.0000   1.0000   1.0000   1.0000   1.0000   1.0000   1.0000
     1.0000   1.0000   1.0000   1.0000   1.0000   1.0000   1.0000   1.0000
     1.0000   1.0000   1.0000   1.0000   1.0000   1.0000   1.0000   1.0000
     1.0000   1.0000   1.0000   1.0000   1.0000   1.0000   1.0000   1.0000
     1.0000   1.0000   1.0000   1.0000   1.0000   1.0000   1.0000   1.0000
     1.0000   1.0000   1.0000   1.0000   1.0000   1.0000   1.0000   1.0000
     1.0000   1.0000   1.0000   1.0000   1.0000   1.0000   1.0000   1.0000
     1.0000   1.0000   1.0000   1.0000   1.0000   1.0000   1.0000   1.0000
     1.0000   1.0000   1.0000   1.0000   1.0000   1.0000   1.0000   1.0000
     1.0000   1.0000   1.0000   1.0000   1.0000   1.0000   1.0000   1.0000
     1.0000   1.0000   1.0000   1.0000   1.0000   1.0000   1.0000   1.0000
     1.0000   1.0000   1.0000   1.0000   1.0000   1.0000   1.0000   1.0000
     1.0000   1.0000   1.0000   1.0000   1.0000   1.0000   1.0000   1.0000
     1.0000   1.0000   1.0000   1.0000   1.0000   1.0000   1.0000   1.0000
     1.0000   1.0000   1.0000   1.0000   1.0000   1.0000   1.0000   1.0000
     1.0000   1.0000   1.0000   1.0000   1.0000   1.0000   1.0000   1.0000
     1.0000   1.0000   1.0000   1.0000   1.0000   1.0000   1.0000   1.0000
     1.0000   1.0000   1.0000   1.0000   1.0000   1.0000   1.0000   1.0000
     1.0000   1.0000   1.0000   1.0000   1.0000   1.0000   1.0000   1.0000
     1.0000   1.0000   1.0000   1.0000   0.9999   0.9999   0.9999   0.9998
     0.9997   0.9997   0.9997   0.9997   0.9997   0.9996   0.9996   0.9996
     0.9989   0.9988   0.9985   0.9985   0.9984   0.9981   0.9978   0.9978
     0.9976   0.9975   0.9972   0.9971   0.9969   0.9966   0.9963   0.9961
     0.9948   0.9923   0.9756   0.9730   0.9366   0.9311   0.8476   0.7958
     0.7811   0.7779   0.7713   0.7513   0.4514   0.3545   0.3465   0.3421
     0.3269   0.3243   0.3130   0.3125   0.0473   0.0138   0.0006   0.0005
     0.0004   0.0000   0.0000   0.0000   0.0000   0.0000   0.0000   0.0000
     0.0000   0.0000   0.0000   0.0000   0.0000   0.0000   0.0000   0.0000
     0.0000   0.0000   0.0000   0.0000   0.0000   0.0000   0.0000   0.0000
     0.0000   0.0000   0.0000   0.0000   0.0000   0.0000   0.0000   0.0000
     0.0000   0.0000   0.0000   0.0000   0.0000   0.0000   0.0000   0.0000
     0.0000   0.0000   0.0000   0.0000   0.0000   0.0000   0.0000   0.0000
     0.0000   0.0000   0.0000   0.0000   0.0000   0.0000   0.0000   0.0000
     0.0000   0.0000   0.0000   0.0000   0.0000   0.0000   0.0000   0.0000
     0.0000   0.0000   0.0000   0.0000   0.0000   0.0000   0.0000   0.0000

          k = 0.0000 0.2887 0.0000 (100583 PWs)   bands (ev):

   -71.1988 -71.1924 -71.1921 -71.1809 -71.1805 -71.1795 -71.1793 -71.1791
   -71.1789 -71.1759 -71.1758 -71.1741 -71.1739 -71.1720 -71.1718 -71.1717
   -71.1715 -71.1713 -71.1712 -71.1711 -71.1710 -71.1707 -71.1705 -71.1688
   -71.1676 -71.1674 -71.1499 -71.1497 -71.1494 -71.1492 -71.1348 -71.1347
   -71.1343 -71.1341 -71.1333 -71.1332 -70.0716 -70.0715 -70.0189 -70.0188
   -70.0182 -70.0181 -70.0106 -70.0105 -70.0101 -70.0100 -70.0098 -70.0097
   -70.0060 -70.0057 -70.0056 -70.0012 -70.0003 -69.9988 -69.9987 -69.9984
   -69.9983 -69.9983 -69.9982 -69.9979 -69.9964 -69.9962 -69.9960 -69.9959
   -69.9843 -69.9796 -69.9789 -69.9747 -69.9683 -69.9682 -69.9247 -69.8930
   -37.3421 -37.3266 -37.3259 -37.3122 -37.3118 -37.3117 -37.3112 -37.3112
   -37.3104 -37.3101 -37.3093 -37.3083 -37.3082 -37.3070 -37.3060 -37.3050
   -37.3048 -37.3044 -37.3041 -37.3028 -37.3026 -37.3000 -37.2993 -37.2991
   -37.2964 -37.2959 -37.2829 -37.2821 -37.2786 -37.2781 -37.2668 -37.2659
   -37.2619 -37.2614 -37.2550 -37.2519 -37.2378 -37.2346 -37.2340 -37.2298
   -37.2258 -37.2240 -37.2233 -37.2231 -37.2228 -37.2226 -37.2220 -37.2201
   -37.2189 -37.2172 -37.2168 -37.2165 -37.2163 -37.2154 -37.2150 -37.2149
   -37.2138 -37.2135 -37.2126 -37.2126 -37.2108 -37.2105 -37.2102 -37.2100
   -37.2091 -37.2086 -37.2080 -37.2074 -37.2057 -37.2045 -37.2042 -37.2038
   -37.2033 -37.2029 -37.2025 -37.2017 -37.2013 -37.2008 -37.2008 -37.1994
   -37.1987 -37.1982 -37.1970 -37.1957 -37.1946 -37.1942 -37.1937 -37.1930
   -37.1902 -37.1896 -37.1886 -37.1884 -37.1829 -37.1824 -37.1806 -37.1803
   -37.1797 -37.1793 -37.1780 -37.1775 -37.1773 -37.1767 -37.1692 -37.1685
   -37.1591 -37.1587 -37.1586 -37.1577 -36.3315 -36.3310 -36.3011 -36.3007
   -36.2992 -36.2989 -36.2989 -36.2984 -36.2977 -36.2972 -36.2784 -36.2723
   -36.2392 -36.2389 -36.2197 -36.2194 -36.2169 -36.2164 -36.2113 -36.2108
   -36.2107 -36.2103 -36.2101 -36.2101 -36.2082 -36.2081 -36.2079 -36.2076
   -36.2074 -36.1998 -36.1991 -36.1939 -36.1936 -36.1784 -36.1675 -36.1079
   -36.1076 -36.1076 -36.0958 -36.0926 -36.0735 -36.0713 -36.0706 -36.0704
   -36.0655 -36.0653 -36.0603 -36.0599 -36.0597 -36.0592 -36.0591 -36.0588
   -36.0559 -36.0556 -36.0556 -36.0551 -36.0547 -36.0546 -36.0516 -36.0508
   -36.0468 -36.0376 -36.0368 -36.0356 -36.0352 -36.0338 -36.0321 -36.0318
   -36.0278 -36.0269 -36.0263 -36.0260 -36.0258 -36.0256 -36.0253 -36.0246
   -36.0240 -36.0231 -36.0226 -36.0218 -36.0192 -36.0185 -36.0179 -36.0157
   -36.0149 -36.0146 -36.0145 -36.0135 -36.0129 -36.0119 -36.0113 -36.0111
   -36.0109 -36.0104 -36.0103 -36.0098 -36.0086 -36.0081 -35.9905 -35.9899
   -35.9819 -35.9788 -35.9678 -35.9673 -35.9669 -35.9564 -35.9422 -35.9011
     3.3492   3.9173   4.1571   4.2008   4.3893   4.4416   4.6436   4.6661
     4.8255   4.8630   4.8797   5.0260   5.0553   5.0592   5.0696   5.2813
     5.2905   5.3525   5.3754   5.3774   5.3851   5.3997   5.4464   5.4726
     5.4856   5.7051   5.7134   5.7689   5.7794   5.7800   5.7842   5.8059
     5.8769   5.8775   6.1509   6.1549   8.6098   9.6015   9.6470   9.7513
    10.0327  10.0344  10.0402  10.1029  10.1440  10.1493  10.2078  10.3084
    10.4127  10.4407  10.4408  10.4621  10.4681  10.4685  10.4705  10.4716
    10.4772  10.4826  10.5721  10.6754  10.6771  10.6802  10.7388  10.7998
    10.8274  10.8278  10.8493  10.8698  11.0325  11.1171  11.1319  11.1365
    11.1772  11.1993  11.2208  11.2245  11.2330  11.3357  11.3611  11.3646
    11.3646  11.6538  11.6949  11.6985  11.8089  11.8145  11.8218  11.8262
    11.8263  11.8465  11.8651  11.8875  11.9501  12.0136  12.0159  12.0210
    12.0226  12.0324  12.0460  12.0528  12.0675  12.0739  12.2007  12.2529
    12.2772  12.2995  12.3151  12.3159  12.3207  12.3624  12.3719  12.3883
    12.4111  12.4131  12.4217  12.4613  12.4782  12.4792  12.4850  12.4910
    12.5014  12.5051  12.5071  12.5076  12.5268  12.5308  12.6832  12.6938
    12.7645  12.7752  12.7763  12.7849  12.8152  12.8154  12.8204  12.8296
    12.9195  12.9626  12.9895  13.0067  13.0148  13.1337  13.1745  13.1845
    13.3591  13.5294  13.5295  13.5383  13.5520  13.5555  13.5956  13.6046
    13.6805  13.6868  13.7068  13.7411  13.7434  13.7467  13.7521  13.7747
    13.7763  13.7828  13.7958  13.8016  13.8151  13.8227  13.8242  13.8293
    13.8356  13.8387  13.8413  13.8512  13.8552  13.8583  13.8743  13.8969
    13.9188  13.9343  13.9506  13.9667  13.9723  13.9835  13.9850  13.9894
    13.9952  13.9980  14.0000  14.0096  14.0225  14.0239  14.0286  14.0341
    14.0346  14.0374  14.0428  14.0472  14.0621  14.1082  14.1108  14.1201
    14.1404  14.1506  14.1535  14.1536  14.1795  14.1838  14.2019  14.2135
    14.2177  14.2195  14.2346  14.2409  14.2430  14.2522  14.2786  14.2983
    14.3041  14.3115  14.3164  14.3283  14.3499  14.3552  14.3685  14.3855
    14.4950  14.5556  14.6889  14.6990  14.7034  14.7057  14.7151  14.7165
    14.7508  14.7559  14.7786  14.7960  14.7961  14.8888  14.9015  14.9096
    14.9132  14.9229  14.9269  14.9284  14.9377  14.9490  14.9535  14.9649
    14.9665  14.9761  14.9830  15.0096  15.0181  15.0262  15.0292  15.0341
    15.0383  15.0410  15.0461  15.0605  15.0695  15.0756  15.1237  15.1290
    15.1397  15.1427  15.1479  15.1506  15.1828  15.1940  15.1982  15.2040
    15.2074  15.2094  15.2258  15.2287  15.2335  15.2361  15.2451  15.2507
    15.2515  15.2568  15.2572  15.2644  15.2761  15.2775  15.3128  15.3131
    15.3188  15.3225  15.3250  15.3357  15.3415  15.3478  15.3541  15.3604
    15.3721  15.3784  15.3795  15.3899  15.3985  15.4066  15.4079  15.4104
    15.4208  15.4256  15.4304  15.4700  15.4873  15.4934  15.5339  15.5684
    15.5737  15.6074  15.6395  15.6400  15.6440  15.6454  15.6501  15.6578
    15.6889  15.7296  15.7379  15.7388  15.7423  15.7426  15.7463  15.7488
    15.7495  15.7604  15.7714  15.7779  15.7945  15.8137  15.8194  15.8548
    15.8847  15.8942  15.9067  15.9177  15.9179  15.9292  15.9321  15.9474
    15.9607  15.9629  15.9651  15.9698  15.9708  15.9954  16.0075  16.0282
    16.0422  16.0492  16.0612  16.0635  16.0790  16.0854  16.0868  16.0940
    16.0958  16.1005  16.1119  16.1282  16.1353  16.1363  16.1387  16.1596
    16.1742  16.1775  16.1861  16.1928  16.2395  16.2434  16.2843  16.2924
    16.3028  16.3142  16.3232  16.3259  16.3289  16.3909  16.4101  16.4153
    16.4201  16.4241  16.4272  16.4316  16.4907  16.4943  16.5197  16.5218
    16.5291  16.5316  16.5321  16.5323  16.5373  16.5394  16.5549  16.5599
    16.5929  16.6400  16.6401  16.6438  16.6529  16.6559  16.6610  16.6685
    16.6721  16.7000  16.7341  16.7352  16.7421  16.7646  16.7698  16.7727
    16.7768  16.7909  16.7911  16.7946  16.8063  16.8107  16.8459  16.8480
    16.8523  16.8549  16.9109  16.9143  16.9210  16.9323  16.9335  16.9388
    16.9417  17.3841  17.4244  17.4631  17.6202  17.6209  17.9950  18.0309
    18.0324  18.0443  18.0568  18.0655  18.0699  18.0772  18.1519  18.1880
    18.1963  18.1972  18.2005  18.2155  18.2945  18.3099  18.3647  18.3753
    18.3892  18.4308  18.4421  18.4439  18.4465  18.4493  18.4692  18.4814
    18.6052  18.6126  18.8970  18.9239  18.9240  18.9337  18.9538  18.9657
    19.0213  19.0271  19.0429  19.0736  19.1498  19.2244  19.2347  19.2684
    19.3013  19.3199  19.3329  19.3332  19.3367  19.3816  19.4128  19.4596
    19.4903  19.5057  19.5143  19.5225  19.5266  19.6161  19.6343  19.6393
    19.6501  20.1885  20.3117  20.3189  20.4205  20.5121  20.5200  20.7401
    20.7647  21.0359  21.0578  21.0701  21.0966  21.1031  21.1354  21.1616

     occupation numbers 
     1.0000   1.0000   1.0000   1.0000   1.0000   1.0000   1.0000   1.0000
     1.0000   1.0000   1.0000   1.0000   1.0000   1.0000   1.0000   1.0000
     1.0000   1.0000   1.0000   1.0000   1.0000   1.0000   1.0000   1.0000
     1.0000   1.0000   1.0000   1.0000   1.0000   1.0000   1.0000   1.0000
     1.0000   1.0000   1.0000   1.0000   1.0000   1.0000   1.0000   1.0000
     1.0000   1.0000   1.0000   1.0000   1.0000   1.0000   1.0000   1.0000
     1.0000   1.0000   1.0000   1.0000   1.0000   1.0000   1.0000   1.0000
     1.0000   1.0000   1.0000   1.0000   1.0000   1.0000   1.0000   1.0000
     1.0000   1.0000   1.0000   1.0000   1.0000   1.0000   1.0000   1.0000
     1.0000   1.0000   1.0000   1.0000   1.0000   1.0000   1.0000   1.0000
     1.0000   1.0000   1.0000   1.0000   1.0000   1.0000   1.0000   1.0000
     1.0000   1.0000   1.0000   1.0000   1.0000   1.0000   1.0000   1.0000
     1.0000   1.0000   1.0000   1.0000   1.0000   1.0000   1.0000   1.0000
     1.0000   1.0000   1.0000   1.0000   1.0000   1.0000   1.0000   1.0000
     1.0000   1.0000   1.0000   1.0000   1.0000   1.0000   1.0000   1.0000
     1.0000   1.0000   1.0000   1.0000   1.0000   1.0000   1.0000   1.0000
     1.0000   1.0000   1.0000   1.0000   1.0000   1.0000   1.0000   1.0000
     1.0000   1.0000   1.0000   1.0000   1.0000   1.0000   1.0000   1.0000
     1.0000   1.0000   1.0000   1.0000   1.0000   1.0000   1.0000   1.0000
     1.0000   1.0000   1.0000   1.0000   1.0000   1.0000   1.0000   1.0000
     1.0000   1.0000   1.0000   1.0000   1.0000   1.0000   1.0000   1.0000
     1.0000   1.0000   1.0000   1.0000   1.0000   1.0000   1.0000   1.0000
     1.0000   1.0000   1.0000   1.0000   1.0000   1.0000   1.0000   1.0000
     1.0000   1.0000   1.0000   1.0000   1.0000   1.0000   1.0000   1.0000
     1.0000   1.0000   1.0000   1.0000   1.0000   1.0000   1.0000   1.0000
     1.0000   1.0000   1.0000   1.0000   1.0000   1.0000   1.0000   1.0000
     1.0000   1.0000   1.0000   1.0000   1.0000   1.0000   1.0000   1.0000
     1.0000   1.0000   1.0000   1.0000   1.0000   1.0000   1.0000   1.0000
     1.0000   1.0000   1.0000   1.0000   1.0000   1.0000   1.0000   1.0000
     1.0000   1.0000   1.0000   1.0000   1.0000   1.0000   1.0000   1.0000
     1.0000   1.0000   1.0000   1.0000   1.0000   1.0000   1.0000   1.0000
     1.0000   1.0000   1.0000   1.0000   1.0000   1.0000   1.0000   1.0000
     1.0000   1.0000   1.0000   1.0000   1.0000   1.0000   1.0000   1.0000
     1.0000   1.0000   1.0000   1.0000   1.0000   1.0000   1.0000   1.0000
     1.0000   1.0000   1.0000   1.0000   1.0000   1.0000   1.0000   1.0000
     1.0000   1.0000   1.0000   1.0000   1.0000   1.0000   1.0000   1.0000
     1.0000   1.0000   1.0000   1.0000   1.0000   1.0000   1.0000   1.0000
     1.0000   1.0000   1.0000   1.0000   1.0000   1.0000   1.0000   1.0000
     1.0000   1.0000   1.0000   1.0000   1.0000   1.0000   1.0000   1.0000
     1.0000   1.0000   1.0000   1.0000   1.0000   1.0000   1.0000   1.0000
     1.0000   1.0000   1.0000   1.0000   1.0000   1.0000   1.0000   1.0000
     1.0000   1.0000   1.0000   1.0000   1.0000   1.0000   1.0000   1.0000
     1.0000   1.0000   1.0000   1.0000   1.0000   1.0000   1.0000   1.0000
     1.0000   1.0000   1.0000   1.0000   1.0000   1.0000   1.0000   1.0000
     1.0000   1.0000   1.0000   1.0000   1.0000   1.0000   1.0000   1.0000
     1.0000   1.0000   1.0000   1.0000   1.0000   1.0000   1.0000   1.0000
     1.0000   1.0000   1.0000   1.0000   1.0000   1.0000   1.0000   1.0000
     1.0000   1.0000   1.0000   1.0000   1.0000   1.0000   1.0000   1.0000
     1.0000   1.0000   1.0000   1.0000   1.0000   1.0000   1.0000   1.0000
     1.0000   1.0000   1.0000   1.0000   1.0000   1.0000   1.0000   1.0000
     1.0000   1.0000   1.0000   1.0000   1.0000   1.0000   1.0000   1.0000
     1.0000   1.0000   1.0000   1.0000   1.0000   1.0000   1.0000   1.0000
     1.0000   1.0000   1.0000   1.0000   1.0000   1.0000   1.0000   1.0000
     1.0000   1.0000   1.0000   1.0000   1.0000   1.0000   1.0000   1.0000
     1.0000   1.0000   1.0000   1.0000   1.0000   1.0000   1.0000   1.0000
     1.0000   1.0000   1.0000   1.0000   1.0000   1.0000   1.0000   1.0000
     1.0000   1.0000   1.0000   1.0000   1.0000   1.0000   1.0000   1.0000
     1.0000   1.0000   1.0000   1.0000   1.0000   1.0000   1.0000   1.0000
     1.0000   1.0000   1.0000   1.0000   1.0000   1.0000   1.0000   1.0000
     1.0000   1.0000   1.0000   1.0000   1.0000   1.0000   1.0000   1.0000
     1.0000   1.0000   1.0000   1.0000   1.0000   1.0000   1.0000   1.0000
     1.0000   1.0000   1.0000   1.0000   1.0000   1.0000   1.0000   1.0000
     1.0000   1.0000   1.0000   1.0000   1.0000   1.0000   1.0000   1.0000
     1.0000   1.0000   1.0000   1.0000   1.0000   1.0000   1.0000   1.0000
     1.0000   1.0000   1.0000   1.0000   1.0000   1.0000   1.0000   1.0000
     1.0000   1.0000   1.0000   1.0000   1.0000   1.0000   1.0000   1.0000
     1.0000   1.0000   1.0000   1.0000   1.0000   1.0000   1.0000   1.0000
     1.0000   1.0000   1.0000   1.0000   1.0000   1.0000   1.0000   1.0000
     1.0000   1.0000   1.0000   1.0000   1.0000   1.0000   1.0000   1.0000
     1.0000   1.0000   1.0000   1.0000   1.0000   1.0000   1.0000   1.0000
     1.0000   1.0000   1.0000   1.0000   1.0000   1.0000   1.0000   1.0000
     1.0000   1.0000   1.0000   1.0000   1.0000   1.0000   1.0000   1.0000
     1.0000   1.0000   1.0000   1.0000   1.0000   1.0000   1.0000   1.0000
     1.0000   1.0000   1.0000   1.0000   1.0000   1.0000   1.0000   1.0000
     1.0000   1.0000   1.0000   1.0000   1.0000   1.0000   1.0000   1.0000
     1.0000   1.0000   1.0000   1.0000   1.0000   1.0000   1.0000   1.0000
     1.0000   1.0000   1.0000   1.0000   1.0000   1.0000   1.0000   1.0000
     1.0000   1.0000   1.0000   1.0000   1.0000   1.0000   1.0000   1.0000
     1.0000   1.0000   1.0000   1.0000   1.0000   1.0000   1.0000   1.0000
     1.0000   1.0000   1.0000   1.0000   1.0000   1.0000   1.0000   1.0000
     1.0000   1.0000   1.0000   1.0000   1.0000   1.0000   1.0000   1.0000
     1.0000   1.0000   1.0000   1.0000   1.0000   1.0000   1.0000   1.0000
     1.0000   1.0000   1.0000   1.0000   1.0000   1.0000   1.0000   1.0000
     1.0000   1.0000   1.0000   1.0000   1.0000   1.0000   1.0000   1.0000
     1.0000   1.0000   1.0000   1.0000   0.9999   0.9999   0.9998   0.9998
     0.9998   0.9998   0.9998   0.9998   0.9998   0.9998   0.9997   0.9997
     0.9994   0.9985   0.9985   0.9984   0.9982   0.9981   0.9979   0.9976
     0.9975   0.9961   0.9935   0.9934   0.9927   0.9900   0.9893   0.9888
     0.9882   0.9857   0.9857   0.9850   0.9825   0.9815   0.9715   0.9708
     0.9693   0.9683   0.9413   0.9392   0.9349   0.9271   0.9262   0.9223
     0.9201   0.1858   0.1350   0.0961   0.0170   0.0168   0.0000   0.0000
     0.0000   0.0000   0.0000   0.0000   0.0000   0.0000   0.0000   0.0000
     0.0000   0.0000   0.0000   0.0000   0.0000   0.0000   0.0000   0.0000
     0.0000   0.0000   0.0000   0.0000   0.0000   0.0000   0.0000   0.0000
     0.0000   0.0000   0.0000   0.0000   0.0000   0.0000   0.0000   0.0000
     0.0000   0.0000   0.0000   0.0000   0.0000   0.0000   0.0000   0.0000
     0.0000   0.0000   0.0000   0.0000   0.0000   0.0000   0.0000   0.0000
     0.0000   0.0000   0.0000   0.0000   0.0000   0.0000   0.0000   0.0000
     0.0000   0.0000   0.0000   0.0000   0.0000   0.0000   0.0000   0.0000
     0.0000   0.0000   0.0000   0.0000   0.0000   0.0000   0.0000   0.0000

          k = 0.0000 0.2887 0.2850 (100631 PWs)   bands (ev):

   -71.1988 -71.1924 -71.1921 -71.1809 -71.1805 -71.1795 -71.1793 -71.1791
   -71.1789 -71.1759 -71.1758 -71.1741 -71.1739 -71.1720 -71.1718 -71.1717
   -71.1714 -71.1713 -71.1712 -71.1711 -71.1710 -71.1707 -71.1705 -71.1688
   -71.1676 -71.1674 -71.1499 -71.1497 -71.1494 -71.1492 -71.1348 -71.1347
   -71.1343 -71.1341 -71.1333 -71.1332 -70.0716 -70.0715 -70.0189 -70.0188
   -70.0182 -70.0181 -70.0106 -70.0105 -70.0101 -70.0100 -70.0098 -70.0097
   -70.0060 -70.0057 -70.0056 -70.0012 -70.0003 -69.9988 -69.9987 -69.9984
   -69.9983 -69.9983 -69.9982 -69.9979 -69.9964 -69.9962 -69.9960 -69.9959
   -69.9843 -69.9796 -69.9789 -69.9747 -69.9683 -69.9682 -69.9247 -69.8930
   -37.3421 -37.3266 -37.3260 -37.3132 -37.3128 -37.3117 -37.3116 -37.3111
   -37.3101 -37.3092 -37.3090 -37.3088 -37.3077 -37.3059 -37.3058 -37.3055
   -37.3050 -37.3046 -37.3044 -37.3017 -37.3015 -37.3004 -37.2996 -37.2995
   -37.2968 -37.2963 -37.2828 -37.2820 -37.2788 -37.2783 -37.2667 -37.2658
   -37.2620 -37.2615 -37.2549 -37.2521 -37.2378 -37.2346 -37.2340 -37.2298
   -37.2258 -37.2240 -37.2233 -37.2232 -37.2228 -37.2226 -37.2220 -37.2201
   -37.2189 -37.2172 -37.2169 -37.2166 -37.2162 -37.2155 -37.2150 -37.2149
   -37.2138 -37.2135 -37.2126 -37.2126 -37.2108 -37.2105 -37.2102 -37.2100
   -37.2092 -37.2086 -37.2080 -37.2073 -37.2057 -37.2045 -37.2042 -37.2038
   -37.2033 -37.2029 -37.2025 -37.2017 -37.2013 -37.2009 -37.2007 -37.1994
   -37.1988 -37.1981 -37.1970 -37.1957 -37.1946 -37.1942 -37.1937 -37.1930
   -37.1902 -37.1896 -37.1886 -37.1884 -37.1830 -37.1824 -37.1806 -37.1803
   -37.1798 -37.1793 -37.1780 -37.1775 -37.1773 -37.1767 -37.1693 -37.1684
   -37.1591 -37.1587 -37.1586 -37.1577 -36.3315 -36.3310 -36.3011 -36.3007
   -36.2993 -36.2989 -36.2989 -36.2984 -36.2977 -36.2972 -36.2784 -36.2723
   -36.2392 -36.2389 -36.2197 -36.2194 -36.2169 -36.2164 -36.2112 -36.2108
   -36.2107 -36.2103 -36.2101 -36.2101 -36.2082 -36.2081 -36.2078 -36.2076
   -36.2074 -36.1998 -36.1991 -36.1939 -36.1936 -36.1784 -36.1675 -36.1079
   -36.1076 -36.1076 -36.0958 -36.0926 -36.0735 -36.0712 -36.0707 -36.0703
   -36.0655 -36.0653 -36.0603 -36.0599 -36.0597 -36.0591 -36.0591 -36.0588
   -36.0560 -36.0556 -36.0556 -36.0551 -36.0547 -36.0546 -36.0516 -36.0508
   -36.0468 -36.0376 -36.0369 -36.0356 -36.0352 -36.0336 -36.0323 -36.0319
   -36.0277 -36.0268 -36.0263 -36.0260 -36.0258 -36.0255 -36.0252 -36.0246
   -36.0241 -36.0232 -36.0228 -36.0210 -36.0192 -36.0185 -36.0183 -36.0162
   -36.0154 -36.0148 -36.0137 -36.0134 -36.0125 -36.0116 -36.0112 -36.0110
   -36.0108 -36.0105 -36.0102 -36.0101 -36.0088 -36.0083 -35.9905 -35.9899
   -35.9820 -35.9787 -35.9678 -35.9673 -35.9669 -35.9564 -35.9422 -35.9011
     3.4217   3.9529   4.0082   4.2268   4.2633   4.4835   4.6698   4.7168
     4.7217   4.7276   4.8778   4.9085   5.0958   5.1135   5.2328   5.2614
     5.3239   5.3312   5.3767   5.3894   5.4335   5.4821   5.5627   5.5830
     5.6043   5.6095   5.6177   5.6406   5.6552   5.7286   5.8341   5.8943
     5.9026   5.9875   6.0298   6.2490   8.6042   9.6671   9.7106   9.7468
     9.7969   9.8815   9.9437   9.9772  10.0398  10.0655  10.0673  10.0845
    10.1111  10.1556  10.2600  10.3583  10.4538  10.5120  10.5295  10.5664
    10.5828  10.6084  10.6388  10.6454  10.6737  10.7215  10.8072  10.8431
    10.8607  10.8698  10.8975  11.0191  11.1058  11.1578  11.1956  11.2262
    11.2586  11.3638  11.4146  11.4247  11.4312  11.4370  11.4871  11.5501
    11.5640  11.5703  11.6530  11.6716  11.7886  11.8340  11.8698  11.8961
    11.9146  11.9586  11.9748  11.9967  12.0188  12.0356  12.0475  12.0747
    12.0877  12.0896  12.1049  12.1090  12.1156  12.1236  12.1279  12.1796
    12.1973  12.2523  12.2771  12.2814  12.2846  12.2859  12.2937  12.2991
    12.3651  12.3881  12.4014  12.4078  12.4190  12.4196  12.4235  12.4308
    12.4748  12.5423  12.5455  12.5808  12.6014  12.6070  12.6220  12.6502
    12.6516  12.6581  12.6735  12.7259  12.7348  12.8045  12.8279  12.8309
    12.8504  12.9348  12.9396  12.9538  12.9637  13.1053  13.1673  13.1756
    13.2557  13.5134  13.5402  13.5773  13.5865  13.5952  13.6271  13.6282
    13.6566  13.7068  13.7130  13.7170  13.7253  13.7488  13.7661  13.7709
    13.7784  13.7819  13.7878  13.7950  13.7988  13.8027  13.8059  13.8154
    13.8384  13.8483  13.8523  13.8573  13.8617  13.8731  13.8787  13.8870
    13.8977  13.9109  13.9353  13.9435  13.9573  13.9598  13.9647  13.9663
    13.9704  13.9739  13.9782  13.9908  14.0007  14.0059  14.0151  14.0201
    14.0288  14.0391  14.0485  14.0644  14.0851  14.0931  14.0959  14.1184
    14.1248  14.1302  14.1425  14.1506  14.1591  14.1697  14.1773  14.1832
    14.1889  14.1915  14.2072  14.2317  14.2531  14.2935  14.3039  14.3059
    14.3120  14.3230  14.3555  14.3614  14.3680  14.3784  14.4526  14.4694
    14.5256  14.5934  14.6070  14.6099  14.6164  14.7328  14.7591  14.7621
    14.7672  14.8510  14.8623  14.8698  14.8708  14.8755  14.8790  14.8838
    14.9251  14.9354  14.9488  14.9598  14.9752  14.9823  14.9855  14.9896
    14.9927  14.9985  15.0016  15.0060  15.0165  15.0276  15.0286  15.0319
    15.0349  15.0421  15.0497  15.0554  15.0634  15.0825  15.0854  15.1047
    15.1118  15.1128  15.1195  15.1368  15.1461  15.1503  15.1552  15.1591
    15.1624  15.1703  15.1734  15.1869  15.1980  15.1994  15.2152  15.2439
    15.2548  15.2567  15.2612  15.2658  15.2712  15.2752  15.2936  15.2951
    15.3015  15.3078  15.3216  15.3364  15.3428  15.3453  15.3624  15.3717
    15.3919  15.4080  15.4174  15.4245  15.4337  15.4434  15.4482  15.4638
    15.4831  15.4976  15.5049  15.5069  15.5103  15.5135  15.5343  15.5624
    15.5684  15.5813  15.6098  15.6125  15.6264  15.6808  15.6906  15.6941
    15.6986  15.7031  15.7107  15.7294  15.7339  15.7366  15.7471  15.7512
    15.7549  15.7692  15.7810  15.8142  15.8313  15.8368  15.8401  15.8463
    15.8577  15.8756  15.8891  15.8944  15.9101  15.9183  15.9292  15.9373
    15.9529  15.9602  15.9813  15.9845  15.9865  15.9881  15.9938  16.0004
    16.0068  16.0104  16.0135  16.0202  16.0359  16.0398  16.0444  16.0476
    16.0510  16.0590  16.0945  16.1130  16.1206  16.1291  16.1351  16.1377
    16.1503  16.1596  16.1632  16.1716  16.1815  16.2432  16.2456  16.2811
    16.3403  16.3494  16.3502  16.3681  16.3721  16.3796  16.3814  16.3993
    16.4266  16.4328  16.4383  16.4404  16.4413  16.4735  16.5115  16.5129
    16.5306  16.5402  16.5423  16.5449  16.5477  16.5519  16.5584  16.5683
    16.5719  16.5753  16.5822  16.5979  16.6256  16.6438  16.6802  16.6884
    16.6921  16.7199  16.7228  16.7277  16.7409  16.7532  16.7587  16.7621
    16.7677  16.7729  16.8013  16.8277  16.8379  16.8458  16.8549  16.8997
    16.9379  16.9485  16.9615  16.9712  16.9967  17.0025  17.0791  17.1489
    17.1591  17.2057  17.3947  17.5130  17.5894  17.7344  17.8509  17.9006
    17.9244  17.9494  17.9604  17.9647  17.9703  18.0605  18.0660  18.0734
    18.0972  18.2135  18.2300  18.2415  18.2506  18.3049  18.3198  18.3611
    18.3748  18.4951  18.5303  18.5927  18.6034  18.6233  18.6467  18.6646
    18.6797  18.7248  18.7854  18.8126  18.8783  18.8819  18.8893  18.8978
    18.9079  18.9294  18.9751  19.0197  19.0800  19.0883  19.0904  19.2312
    19.2374  19.2435  19.2796  19.3341  19.3599  19.3768  19.3953  19.4006
    19.4047  19.5143  19.5743  19.5985  19.6096  19.7306  19.7611  19.9023
    19.9230  19.9413  19.9527  19.9754  20.0041  20.1103  20.4342  20.4880
    20.5799  20.6882  20.8064  20.8369  20.9292  21.2211  21.2899  21.3364

     occupation numbers 
     1.0000   1.0000   1.0000   1.0000   1.0000   1.0000   1.0000   1.0000
     1.0000   1.0000   1.0000   1.0000   1.0000   1.0000   1.0000   1.0000
     1.0000   1.0000   1.0000   1.0000   1.0000   1.0000   1.0000   1.0000
     1.0000   1.0000   1.0000   1.0000   1.0000   1.0000   1.0000   1.0000
     1.0000   1.0000   1.0000   1.0000   1.0000   1.0000   1.0000   1.0000
     1.0000   1.0000   1.0000   1.0000   1.0000   1.0000   1.0000   1.0000
     1.0000   1.0000   1.0000   1.0000   1.0000   1.0000   1.0000   1.0000
     1.0000   1.0000   1.0000   1.0000   1.0000   1.0000   1.0000   1.0000
     1.0000   1.0000   1.0000   1.0000   1.0000   1.0000   1.0000   1.0000
     1.0000   1.0000   1.0000   1.0000   1.0000   1.0000   1.0000   1.0000
     1.0000   1.0000   1.0000   1.0000   1.0000   1.0000   1.0000   1.0000
     1.0000   1.0000   1.0000   1.0000   1.0000   1.0000   1.0000   1.0000
     1.0000   1.0000   1.0000   1.0000   1.0000   1.0000   1.0000   1.0000
     1.0000   1.0000   1.0000   1.0000   1.0000   1.0000   1.0000   1.0000
     1.0000   1.0000   1.0000   1.0000   1.0000   1.0000   1.0000   1.0000
     1.0000   1.0000   1.0000   1.0000   1.0000   1.0000   1.0000   1.0000
     1.0000   1.0000   1.0000   1.0000   1.0000   1.0000   1.0000   1.0000
     1.0000   1.0000   1.0000   1.0000   1.0000   1.0000   1.0000   1.0000
     1.0000   1.0000   1.0000   1.0000   1.0000   1.0000   1.0000   1.0000
     1.0000   1.0000   1.0000   1.0000   1.0000   1.0000   1.0000   1.0000
     1.0000   1.0000   1.0000   1.0000   1.0000   1.0000   1.0000   1.0000
     1.0000   1.0000   1.0000   1.0000   1.0000   1.0000   1.0000   1.0000
     1.0000   1.0000   1.0000   1.0000   1.0000   1.0000   1.0000   1.0000
     1.0000   1.0000   1.0000   1.0000   1.0000   1.0000   1.0000   1.0000
     1.0000   1.0000   1.0000   1.0000   1.0000   1.0000   1.0000   1.0000
     1.0000   1.0000   1.0000   1.0000   1.0000   1.0000   1.0000   1.0000
     1.0000   1.0000   1.0000   1.0000   1.0000   1.0000   1.0000   1.0000
     1.0000   1.0000   1.0000   1.0000   1.0000   1.0000   1.0000   1.0000
     1.0000   1.0000   1.0000   1.0000   1.0000   1.0000   1.0000   1.0000
     1.0000   1.0000   1.0000   1.0000   1.0000   1.0000   1.0000   1.0000
     1.0000   1.0000   1.0000   1.0000   1.0000   1.0000   1.0000   1.0000
     1.0000   1.0000   1.0000   1.0000   1.0000   1.0000   1.0000   1.0000
     1.0000   1.0000   1.0000   1.0000   1.0000   1.0000   1.0000   1.0000
     1.0000   1.0000   1.0000   1.0000   1.0000   1.0000   1.0000   1.0000
     1.0000   1.0000   1.0000   1.0000   1.0000   1.0000   1.0000   1.0000
     1.0000   1.0000   1.0000   1.0000   1.0000   1.0000   1.0000   1.0000
     1.0000   1.0000   1.0000   1.0000   1.0000   1.0000   1.0000   1.0000
     1.0000   1.0000   1.0000   1.0000   1.0000   1.0000   1.0000   1.0000
     1.0000   1.0000   1.0000   1.0000   1.0000   1.0000   1.0000   1.0000
     1.0000   1.0000   1.0000   1.0000   1.0000   1.0000   1.0000   1.0000
     1.0000   1.0000   1.0000   1.0000   1.0000   1.0000   1.0000   1.0000
     1.0000   1.0000   1.0000   1.0000   1.0000   1.0000   1.0000   1.0000
     1.0000   1.0000   1.0000   1.0000   1.0000   1.0000   1.0000   1.0000
     1.0000   1.0000   1.0000   1.0000   1.0000   1.0000   1.0000   1.0000
     1.0000   1.0000   1.0000   1.0000   1.0000   1.0000   1.0000   1.0000
     1.0000   1.0000   1.0000   1.0000   1.0000   1.0000   1.0000   1.0000
     1.0000   1.0000   1.0000   1.0000   1.0000   1.0000   1.0000   1.0000
     1.0000   1.0000   1.0000   1.0000   1.0000   1.0000   1.0000   1.0000
     1.0000   1.0000   1.0000   1.0000   1.0000   1.0000   1.0000   1.0000
     1.0000   1.0000   1.0000   1.0000   1.0000   1.0000   1.0000   1.0000
     1.0000   1.0000   1.0000   1.0000   1.0000   1.0000   1.0000   1.0000
     1.0000   1.0000   1.0000   1.0000   1.0000   1.0000   1.0000   1.0000
     1.0000   1.0000   1.0000   1.0000   1.0000   1.0000   1.0000   1.0000
     1.0000   1.0000   1.0000   1.0000   1.0000   1.0000   1.0000   1.0000
     1.0000   1.0000   1.0000   1.0000   1.0000   1.0000   1.0000   1.0000
     1.0000   1.0000   1.0000   1.0000   1.0000   1.0000   1.0000   1.0000
     1.0000   1.0000   1.0000   1.0000   1.0000   1.0000   1.0000   1.0000
     1.0000   1.0000   1.0000   1.0000   1.0000   1.0000   1.0000   1.0000
     1.0000   1.0000   1.0000   1.0000   1.0000   1.0000   1.0000   1.0000
     1.0000   1.0000   1.0000   1.0000   1.0000   1.0000   1.0000   1.0000
     1.0000   1.0000   1.0000   1.0000   1.0000   1.0000   1.0000   1.0000
     1.0000   1.0000   1.0000   1.0000   1.0000   1.0000   1.0000   1.0000
     1.0000   1.0000   1.0000   1.0000   1.0000   1.0000   1.0000   1.0000
     1.0000   1.0000   1.0000   1.0000   1.0000   1.0000   1.0000   1.0000
     1.0000   1.0000   1.0000   1.0000   1.0000   1.0000   1.0000   1.0000
     1.0000   1.0000   1.0000   1.0000   1.0000   1.0000   1.0000   1.0000
     1.0000   1.0000   1.0000   1.0000   1.0000   1.0000   1.0000   1.0000
     1.0000   1.0000   1.0000   1.0000   1.0000   1.0000   1.0000   1.0000
     1.0000   1.0000   1.0000   1.0000   1.0000   1.0000   1.0000   1.0000
     1.0000   1.0000   1.0000   1.0000   1.0000   1.0000   1.0000   1.0000
     1.0000   1.0000   1.0000   1.0000   1.0000   1.0000   1.0000   1.0000
     1.0000   1.0000   1.0000   1.0000   1.0000   1.0000   1.0000   1.0000
     1.0000   1.0000   1.0000   1.0000   1.0000   1.0000   1.0000   1.0000
     1.0000   1.0000   1.0000   1.0000   1.0000   1.0000   1.0000   1.0000
     1.0000   1.0000   1.0000   1.0000   1.0000   1.0000   1.0000   1.0000
     1.0000   1.0000   1.0000   1.0000   1.0000   1.0000   1.0000   1.0000
     1.0000   1.0000   1.0000   1.0000   1.0000   1.0000   1.0000   1.0000
     1.0000   1.0000   1.0000   1.0000   1.0000   1.0000   1.0000   1.0000
     1.0000   1.0000   1.0000   1.0000   1.0000   1.0000   1.0000   1.0000
     1.0000   1.0000   1.0000   1.0000   1.0000   1.0000   1.0000   1.0000
     1.0000   1.0000   1.0000   1.0000   1.0000   1.0000   1.0000   1.0000
     1.0000   1.0000   1.0000   1.0000   1.0000   1.0000   1.0000   1.0000
     1.0000   1.0000   1.0000   1.0000   1.0000   1.0000   1.0000   1.0000
     1.0000   1.0000   1.0000   1.0000   1.0000   1.0000   1.0000   1.0000
     1.0000   1.0000   1.0000   1.0000   1.0000   0.9999   0.9999   0.9999
     0.9998   0.9998   0.9998   0.9997   0.9997   0.9997   0.9997   0.9996
     0.9996   0.9995   0.9995   0.9993   0.9989   0.9984   0.9972   0.9968
     0.9966   0.9947   0.9945   0.9941   0.9928   0.9915   0.9908   0.9903
     0.9896   0.9888   0.9836   0.9772   0.9741   0.9715   0.9683   0.9478
     0.9230   0.9147   0.9037   0.8948   0.8686   0.8620   0.7555   0.6288
     0.6087   0.5135   0.1715   0.0590   0.0250   0.0033   0.0005   0.0002
     0.0001   0.0001   0.0001   0.0000   0.0000   0.0000   0.0000   0.0000
     0.0000   0.0000   0.0000   0.0000   0.0000   0.0000   0.0000   0.0000
     0.0000   0.0000   0.0000   0.0000   0.0000   0.0000   0.0000   0.0000
     0.0000   0.0000   0.0000   0.0000   0.0000   0.0000   0.0000   0.0000
     0.0000   0.0000   0.0000   0.0000   0.0000   0.0000   0.0000   0.0000
     0.0000   0.0000   0.0000   0.0000   0.0000   0.0000   0.0000   0.0000
     0.0000   0.0000   0.0000   0.0000   0.0000   0.0000   0.0000   0.0000
     0.0000   0.0000   0.0000   0.0000   0.0000   0.0000   0.0000   0.0000
     0.0000   0.0000   0.0000   0.0000   0.0000   0.0000   0.0000   0.0000

          k = 0.0000 0.2887-0.5700 (100576 PWs)   bands (ev):

   -71.1988 -71.1924 -71.1921 -71.1809 -71.1805 -71.1795 -71.1793 -71.1791
   -71.1790 -71.1759 -71.1758 -71.1741 -71.1739 -71.1720 -71.1719 -71.1717
   -71.1714 -71.1713 -71.1712 -71.1711 -71.1710 -71.1707 -71.1705 -71.1688
   -71.1676 -71.1674 -71.1499 -71.1497 -71.1494 -71.1492 -71.1348 -71.1347
   -71.1343 -71.1341 -71.1333 -71.1332 -70.0716 -70.0715 -70.0189 -70.0188
   -70.0182 -70.0181 -70.0106 -70.0105 -70.0101 -70.0100 -70.0098 -70.0097
   -70.0060 -70.0057 -70.0056 -70.0012 -70.0003 -69.9988 -69.9987 -69.9984
   -69.9983 -69.9983 -69.9982 -69.9979 -69.9964 -69.9962 -69.9960 -69.9959
   -69.9843 -69.9796 -69.9789 -69.9747 -69.9683 -69.9682 -69.9247 -69.8930
   -37.3421 -37.3266 -37.3260 -37.3137 -37.3133 -37.3120 -37.3116 -37.3111
   -37.3105 -37.3095 -37.3081 -37.3077 -37.3071 -37.3063 -37.3060 -37.3053
   -37.3052 -37.3049 -37.3037 -37.3009 -37.3006 -37.3003 -37.3001 -37.2997
   -37.2974 -37.2969 -37.2826 -37.2819 -37.2789 -37.2784 -37.2665 -37.2657
   -37.2621 -37.2616 -37.2548 -37.2522 -37.2378 -37.2346 -37.2340 -37.2298
   -37.2258 -37.2240 -37.2233 -37.2231 -37.2228 -37.2226 -37.2220 -37.2201
   -37.2189 -37.2171 -37.2169 -37.2167 -37.2162 -37.2154 -37.2150 -37.2149
   -37.2138 -37.2135 -37.2126 -37.2126 -37.2107 -37.2105 -37.2101 -37.2100
   -37.2092 -37.2086 -37.2080 -37.2073 -37.2057 -37.2045 -37.2042 -37.2038
   -37.2033 -37.2029 -37.2025 -37.2017 -37.2013 -37.2009 -37.2007 -37.1994
   -37.1988 -37.1981 -37.1970 -37.1957 -37.1946 -37.1942 -37.1937 -37.1930
   -37.1902 -37.1896 -37.1886 -37.1884 -37.1829 -37.1823 -37.1806 -37.1803
   -37.1797 -37.1792 -37.1780 -37.1775 -37.1772 -37.1767 -37.1693 -37.1684
   -37.1591 -37.1587 -37.1586 -37.1577 -36.3315 -36.3310 -36.3011 -36.3006
   -36.2993 -36.2989 -36.2989 -36.2983 -36.2977 -36.2972 -36.2783 -36.2723
   -36.2392 -36.2389 -36.2196 -36.2194 -36.2169 -36.2164 -36.2112 -36.2108
   -36.2107 -36.2103 -36.2102 -36.2100 -36.2082 -36.2082 -36.2078 -36.2076
   -36.2074 -36.1998 -36.1991 -36.1939 -36.1936 -36.1784 -36.1675 -36.1079
   -36.1076 -36.1076 -36.0959 -36.0925 -36.0735 -36.0712 -36.0708 -36.0703
   -36.0655 -36.0653 -36.0603 -36.0599 -36.0597 -36.0591 -36.0591 -36.0588
   -36.0559 -36.0556 -36.0555 -36.0551 -36.0547 -36.0546 -36.0516 -36.0508
   -36.0468 -36.0375 -36.0371 -36.0356 -36.0352 -36.0334 -36.0326 -36.0320
   -36.0278 -36.0267 -36.0263 -36.0259 -36.0258 -36.0255 -36.0252 -36.0245
   -36.0242 -36.0232 -36.0229 -36.0201 -36.0192 -36.0188 -36.0185 -36.0166
   -36.0157 -36.0150 -36.0136 -36.0133 -36.0118 -36.0112 -36.0111 -36.0109
   -36.0107 -36.0106 -36.0105 -36.0101 -36.0090 -36.0086 -35.9905 -35.9899
   -35.9821 -35.9786 -35.9678 -35.9673 -35.9669 -35.9564 -35.9422 -35.9011
     3.6105   3.6622   4.1555   4.2015   4.3867   4.4379   4.4445   4.4460
     4.8371   4.8729   4.8785   4.8800   5.0320   5.0491   5.1997   5.4247
     5.4414   5.4454   5.4478   5.4952   5.4992   5.5222   5.5273   5.5617
     5.5768   5.5796   5.5848   5.5857   5.6064   5.6142   5.9100   5.9178
     5.9339   5.9443   6.0312   6.2857   8.5982   9.6855   9.7232   9.7956
     9.8264   9.8341   9.8438   9.8670   9.8768   9.8809   9.8902   9.8905
     9.8933  10.1556  10.3926  10.4272  10.4533  10.4831  10.5149  10.5150
    10.5509  10.5755  10.5768  10.5845  10.5894  10.5909  10.7785  10.8626
    10.9271  10.9313  10.9487  11.1300  11.1779  11.2376  11.3260  11.3453
    11.3676  11.4050  11.4780  11.4964  11.5374  11.5650  11.6589  11.7717
    11.7831  11.7996  11.8028  11.8376  11.8439  11.8585  11.8704  11.9353
    12.0346  12.0546  12.0656  12.0777  12.0879  12.0893  12.0930  12.1237
    12.1523  12.1632  12.1768  12.1848  12.1933  12.1958  12.1993  12.2320
    12.2413  12.2459  12.2516  12.2519  12.2541  12.2630  12.2648  12.2682
    12.2763  12.2831  12.2894  12.2943  12.3277  12.3299  12.3400  12.3620
    12.3644  12.3688  12.3693  12.3713  12.3871  12.5861  12.5912  12.6015
    12.6037  12.6394  12.6417  12.6502  12.7000  12.7099  12.7389  12.7497
    12.8113  12.8211  13.0710  13.0768  13.0934  13.0984  13.1081  13.1160
    13.1373  13.4949  13.5395  13.6025  13.6283  13.6520  13.6619  13.6626
    13.6662  13.6675  13.6741  13.6857  13.6983  13.7117  13.7660  13.7737
    13.7780  13.7798  13.7843  13.7916  13.7919  13.7945  13.8083  13.8295
    13.8449  13.8503  13.8623  13.8697  13.8746  13.8793  13.8856  13.8868
    13.8925  13.8990  13.9356  13.9415  13.9436  13.9469  13.9502  13.9532
    13.9543  13.9558  13.9617  13.9626  13.9685  13.9886  13.9926  13.9949
    14.0142  14.0250  14.0384  14.0518  14.0749  14.0826  14.0863  14.0904
    14.0978  14.0992  14.1109  14.1201  14.1370  14.1627  14.1722  14.2088
    14.2195  14.2320  14.2713  14.2752  14.2795  14.2798  14.3180  14.3235
    14.3259  14.3310  14.3395  14.3411  14.4426  14.4549  14.4608  14.4608
    14.5142  14.5235  14.5391  14.5433  14.6813  14.6900  14.8300  14.8353
    14.8722  14.8805  14.8866  14.8906  14.8906  14.8968  14.9021  14.9122
    14.9227  14.9280  14.9633  14.9761  14.9775  14.9799  14.9900  14.9957
    15.0048  15.0104  15.0137  15.0148  15.0259  15.0300  15.0307  15.0394
    15.0428  15.0531  15.0582  15.0616  15.0693  15.0735  15.0745  15.0820
    15.0825  15.1054  15.1186  15.1212  15.1215  15.1260  15.1301  15.1313
    15.1384  15.1494  15.1503  15.1678  15.1692  15.1910  15.1957  15.2176
    15.2254  15.2276  15.2466  15.2584  15.2595  15.2646  15.2655  15.2745
    15.2824  15.2838  15.3602  15.3641  15.3790  15.3818  15.4131  15.4186
    15.4466  15.4478  15.4493  15.4534  15.4635  15.4695  15.5042  15.5103
    15.5123  15.5194  15.5334  15.5400  15.5432  15.5434  15.5468  15.5507
    15.5593  15.5730  15.5747  15.5918  15.6332  15.6432  15.6465  15.6494
    15.6586  15.6596  15.6913  15.6970  15.6976  15.7012  15.7125  15.7134
    15.8082  15.8325  15.8347  15.8506  15.8614  15.8646  15.8658  15.8677
    15.8698  15.8880  15.8936  15.9018  15.9147  15.9177  15.9207  15.9214
    15.9270  15.9285  15.9292  15.9495  15.9505  15.9600  15.9726  15.9739
    15.9792  15.9850  15.9955  16.0062  16.0085  16.0090  16.0151  16.0268
    16.0497  16.0733  16.0807  16.0950  16.0950  16.0990  16.1115  16.1143
    16.1197  16.1226  16.1346  16.1352  16.1386  16.3035  16.3107  16.3142
    16.3327  16.3349  16.3365  16.3409  16.3819  16.3834  16.3846  16.3860
    16.3987  16.4002  16.4631  16.4717  16.4774  16.4858  16.4913  16.4975
    16.5009  16.5258  16.5294  16.5441  16.5519  16.5558  16.5586  16.5602
    16.5607  16.5653  16.5657  16.5944  16.6351  16.6387  16.6636  16.6723
    16.6756  16.7046  16.7095  16.7147  16.7148  16.7199  16.7576  16.7633
    16.7856  16.8002  16.8236  16.8508  16.9094  16.9423  16.9477  16.9730
    16.9879  16.9889  16.9913  16.9953  17.1625  17.1968  17.2001  17.2095
    17.2107  17.2171  17.4329  17.4358  17.6176  17.6834  17.6858  17.8061
    17.8295  17.9003  17.9067  17.9112  17.9142  17.9149  17.9196  18.1359
    18.1517  18.1562  18.2597  18.2941  18.3052  18.3053  18.3187  18.3939
    18.3988  18.5416  18.5464  18.5938  18.5989  18.6112  18.6188  18.6248
    18.6262  18.6354  18.6390  18.6992  18.7687  18.9365  19.0023  19.0292
    19.0320  19.0342  19.0432  19.0823  19.1272  19.1286  19.1976  19.2094
    19.2215  19.2574  19.2622  19.3475  19.3601  19.3667  19.3691  19.4039
    19.4364  19.4868  19.5041  19.5081  19.5100  19.5185  19.5189  19.5553
    19.6006  19.6097  19.8727  19.9013  20.2563  20.2750  20.3198  20.3427
    20.4177  20.5158  20.6545  20.6765  21.0204  21.1418  21.2699  21.8800

     occupation numbers 
     1.0000   1.0000   1.0000   1.0000   1.0000   1.0000   1.0000   1.0000
     1.0000   1.0000   1.0000   1.0000   1.0000   1.0000   1.0000   1.0000
     1.0000   1.0000   1.0000   1.0000   1.0000   1.0000   1.0000   1.0000
     1.0000   1.0000   1.0000   1.0000   1.0000   1.0000   1.0000   1.0000
     1.0000   1.0000   1.0000   1.0000   1.0000   1.0000   1.0000   1.0000
     1.0000   1.0000   1.0000   1.0000   1.0000   1.0000   1.0000   1.0000
     1.0000   1.0000   1.0000   1.0000   1.0000   1.0000   1.0000   1.0000
     1.0000   1.0000   1.0000   1.0000   1.0000   1.0000   1.0000   1.0000
     1.0000   1.0000   1.0000   1.0000   1.0000   1.0000   1.0000   1.0000
     1.0000   1.0000   1.0000   1.0000   1.0000   1.0000   1.0000   1.0000
     1.0000   1.0000   1.0000   1.0000   1.0000   1.0000   1.0000   1.0000
     1.0000   1.0000   1.0000   1.0000   1.0000   1.0000   1.0000   1.0000
     1.0000   1.0000   1.0000   1.0000   1.0000   1.0000   1.0000   1.0000
     1.0000   1.0000   1.0000   1.0000   1.0000   1.0000   1.0000   1.0000
     1.0000   1.0000   1.0000   1.0000   1.0000   1.0000   1.0000   1.0000
     1.0000   1.0000   1.0000   1.0000   1.0000   1.0000   1.0000   1.0000
     1.0000   1.0000   1.0000   1.0000   1.0000   1.0000   1.0000   1.0000
     1.0000   1.0000   1.0000   1.0000   1.0000   1.0000   1.0000   1.0000
     1.0000   1.0000   1.0000   1.0000   1.0000   1.0000   1.0000   1.0000
     1.0000   1.0000   1.0000   1.0000   1.0000   1.0000   1.0000   1.0000
     1.0000   1.0000   1.0000   1.0000   1.0000   1.0000   1.0000   1.0000
     1.0000   1.0000   1.0000   1.0000   1.0000   1.0000   1.0000   1.0000
     1.0000   1.0000   1.0000   1.0000   1.0000   1.0000   1.0000   1.0000
     1.0000   1.0000   1.0000   1.0000   1.0000   1.0000   1.0000   1.0000
     1.0000   1.0000   1.0000   1.0000   1.0000   1.0000   1.0000   1.0000
     1.0000   1.0000   1.0000   1.0000   1.0000   1.0000   1.0000   1.0000
     1.0000   1.0000   1.0000   1.0000   1.0000   1.0000   1.0000   1.0000
     1.0000   1.0000   1.0000   1.0000   1.0000   1.0000   1.0000   1.0000
     1.0000   1.0000   1.0000   1.0000   1.0000   1.0000   1.0000   1.0000
     1.0000   1.0000   1.0000   1.0000   1.0000   1.0000   1.0000   1.0000
     1.0000   1.0000   1.0000   1.0000   1.0000   1.0000   1.0000   1.0000
     1.0000   1.0000   1.0000   1.0000   1.0000   1.0000   1.0000   1.0000
     1.0000   1.0000   1.0000   1.0000   1.0000   1.0000   1.0000   1.0000
     1.0000   1.0000   1.0000   1.0000   1.0000   1.0000   1.0000   1.0000
     1.0000   1.0000   1.0000   1.0000   1.0000   1.0000   1.0000   1.0000
     1.0000   1.0000   1.0000   1.0000   1.0000   1.0000   1.0000   1.0000
     1.0000   1.0000   1.0000   1.0000   1.0000   1.0000   1.0000   1.0000
     1.0000   1.0000   1.0000   1.0000   1.0000   1.0000   1.0000   1.0000
     1.0000   1.0000   1.0000   1.0000   1.0000   1.0000   1.0000   1.0000
     1.0000   1.0000   1.0000   1.0000   1.0000   1.0000   1.0000   1.0000
     1.0000   1.0000   1.0000   1.0000   1.0000   1.0000   1.0000   1.0000
     1.0000   1.0000   1.0000   1.0000   1.0000   1.0000   1.0000   1.0000
     1.0000   1.0000   1.0000   1.0000   1.0000   1.0000   1.0000   1.0000
     1.0000   1.0000   1.0000   1.0000   1.0000   1.0000   1.0000   1.0000
     1.0000   1.0000   1.0000   1.0000   1.0000   1.0000   1.0000   1.0000
     1.0000   1.0000   1.0000   1.0000   1.0000   1.0000   1.0000   1.0000
     1.0000   1.0000   1.0000   1.0000   1.0000   1.0000   1.0000   1.0000
     1.0000   1.0000   1.0000   1.0000   1.0000   1.0000   1.0000   1.0000
     1.0000   1.0000   1.0000   1.0000   1.0000   1.0000   1.0000   1.0000
     1.0000   1.0000   1.0000   1.0000   1.0000   1.0000   1.0000   1.0000
     1.0000   1.0000   1.0000   1.0000   1.0000   1.0000   1.0000   1.0000
     1.0000   1.0000   1.0000   1.0000   1.0000   1.0000   1.0000   1.0000
     1.0000   1.0000   1.0000   1.0000   1.0000   1.0000   1.0000   1.0000
     1.0000   1.0000   1.0000   1.0000   1.0000   1.0000   1.0000   1.0000
     1.0000   1.0000   1.0000   1.0000   1.0000   1.0000   1.0000   1.0000
     1.0000   1.0000   1.0000   1.0000   1.0000   1.0000   1.0000   1.0000
     1.0000   1.0000   1.0000   1.0000   1.0000   1.0000   1.0000   1.0000
     1.0000   1.0000   1.0000   1.0000   1.0000   1.0000   1.0000   1.0000
     1.0000   1.0000   1.0000   1.0000   1.0000   1.0000   1.0000   1.0000
     1.0000   1.0000   1.0000   1.0000   1.0000   1.0000   1.0000   1.0000
     1.0000   1.0000   1.0000   1.0000   1.0000   1.0000   1.0000   1.0000
     1.0000   1.0000   1.0000   1.0000   1.0000   1.0000   1.0000   1.0000
     1.0000   1.0000   1.0000   1.0000   1.0000   1.0000   1.0000   1.0000
     1.0000   1.0000   1.0000   1.0000   1.0000   1.0000   1.0000   1.0000
     1.0000   1.0000   1.0000   1.0000   1.0000   1.0000   1.0000   1.0000
     1.0000   1.0000   1.0000   1.0000   1.0000   1.0000   1.0000   1.0000
     1.0000   1.0000   1.0000   1.0000   1.0000   1.0000   1.0000   1.0000
     1.0000   1.0000   1.0000   1.0000   1.0000   1.0000   1.0000   1.0000
     1.0000   1.0000   1.0000   1.0000   1.0000   1.0000   1.0000   1.0000
     1.0000   1.0000   1.0000   1.0000   1.0000   1.0000   1.0000   1.0000
     1.0000   1.0000   1.0000   1.0000   1.0000   1.0000   1.0000   1.0000
     1.0000   1.0000   1.0000   1.0000   1.0000   1.0000   1.0000   1.0000
     1.0000   1.0000   1.0000   1.0000   1.0000   1.0000   1.0000   1.0000
     1.0000   1.0000   1.0000   1.0000   1.0000   1.0000   1.0000   1.0000
     1.0000   1.0000   1.0000   1.0000   1.0000   1.0000   1.0000   1.0000
     1.0000   1.0000   1.0000   1.0000   1.0000   1.0000   1.0000   1.0000
     1.0000   1.0000   1.0000   1.0000   1.0000   1.0000   1.0000   1.0000
     1.0000   1.0000   1.0000   1.0000   1.0000   1.0000   1.0000   1.0000
     1.0000   1.0000   1.0000   1.0000   1.0000   1.0000   1.0000   1.0000
     1.0000   1.0000   1.0000   1.0000   1.0000   1.0000   1.0000   1.0000
     1.0000   1.0000   1.0000   1.0000   1.0000   1.0000   1.0000   1.0000
     1.0000   1.0000   1.0000   1.0000   1.0000   1.0000   1.0000   1.0000
     1.0000   1.0000   1.0000   1.0000   1.0000   1.0000   1.0000   1.0000
     1.0000   1.0000   1.0000   1.0000   1.0000   1.0000   1.0000   1.0000
     1.0000   1.0000   1.0000   0.9999   0.9999   0.9999   0.9999   0.9999
     0.9999   0.9998   0.9998   0.9997   0.9997   0.9997   0.9997   0.9996
     0.9996   0.9996   0.9996   0.9993   0.9986   0.9986   0.9978   0.9975
     0.9974   0.9958   0.9955   0.9951   0.9951   0.9947   0.9909   0.9902
     0.9867   0.9839   0.9783   0.9698   0.9422   0.9197   0.9153   0.8931
     0.8781   0.8771   0.8745   0.8701   0.6019   0.5319   0.5250   0.5055
     0.5031   0.4899   0.1256   0.1226   0.0176   0.0072   0.0069   0.0010
     0.0007   0.0002   0.0002   0.0001   0.0001   0.0001   0.0001   0.0000
     0.0000   0.0000   0.0000   0.0000   0.0000   0.0000   0.0000   0.0000
     0.0000   0.0000   0.0000   0.0000   0.0000   0.0000   0.0000   0.0000
     0.0000   0.0000   0.0000   0.0000   0.0000   0.0000   0.0000   0.0000
     0.0000   0.0000   0.0000   0.0000   0.0000   0.0000   0.0000   0.0000
     0.0000   0.0000   0.0000   0.0000   0.0000   0.0000   0.0000   0.0000
     0.0000   0.0000   0.0000   0.0000   0.0000   0.0000   0.0000   0.0000
     0.0000   0.0000   0.0000   0.0000   0.0000   0.0000   0.0000   0.0000
     0.0000   0.0000   0.0000   0.0000   0.0000   0.0000   0.0000   0.0000

          k = 0.0000-0.5774 0.0000 (100622 PWs)   bands (ev):

   -71.1988 -71.1924 -71.1921 -71.1809 -71.1805 -71.1795 -71.1793 -71.1791
   -71.1789 -71.1759 -71.1758 -71.1741 -71.1739 -71.1720 -71.1718 -71.1717
   -71.1715 -71.1713 -71.1712 -71.1711 -71.1710 -71.1707 -71.1705 -71.1688
   -71.1676 -71.1674 -71.1499 -71.1497 -71.1494 -71.1492 -71.1348 -71.1347
   -71.1343 -71.1341 -71.1333 -71.1332 -70.0716 -70.0715 -70.0189 -70.0188
   -70.0182 -70.0181 -70.0106 -70.0105 -70.0101 -70.0100 -70.0098 -70.0097
   -70.0060 -70.0057 -70.0056 -70.0012 -70.0003 -69.9988 -69.9987 -69.9984
   -69.9983 -69.9983 -69.9982 -69.9979 -69.9964 -69.9962 -69.9960 -69.9959
   -69.9843 -69.9796 -69.9789 -69.9747 -69.9683 -69.9682 -69.9247 -69.8930
   -37.3421 -37.3266 -37.3260 -37.3122 -37.3118 -37.3117 -37.3112 -37.3112
   -37.3104 -37.3102 -37.3093 -37.3083 -37.3082 -37.3070 -37.3060 -37.3050
   -37.3048 -37.3044 -37.3042 -37.3028 -37.3026 -37.3000 -37.2993 -37.2991
   -37.2964 -37.2959 -37.2830 -37.2821 -37.2787 -37.2781 -37.2668 -37.2659
   -37.2620 -37.2614 -37.2551 -37.2519 -37.2377 -37.2346 -37.2340 -37.2295
   -37.2252 -37.2247 -37.2233 -37.2231 -37.2228 -37.2227 -37.2217 -37.2206
   -37.2194 -37.2169 -37.2167 -37.2164 -37.2159 -37.2154 -37.2148 -37.2146
   -37.2141 -37.2140 -37.2127 -37.2125 -37.2119 -37.2106 -37.2106 -37.2100
   -37.2088 -37.2082 -37.2078 -37.2068 -37.2060 -37.2049 -37.2044 -37.2040
   -37.2034 -37.2033 -37.2021 -37.2012 -37.2010 -37.2004 -37.2002 -37.1995
   -37.1990 -37.1990 -37.1968 -37.1960 -37.1945 -37.1941 -37.1939 -37.1932
   -37.1895 -37.1891 -37.1887 -37.1886 -37.1826 -37.1821 -37.1803 -37.1798
   -37.1797 -37.1793 -37.1783 -37.1778 -37.1777 -37.1770 -37.1692 -37.1684
   -37.1591 -37.1587 -37.1586 -37.1578 -36.3315 -36.3310 -36.3011 -36.3006
   -36.2992 -36.2988 -36.2988 -36.2985 -36.2977 -36.2972 -36.2783 -36.2723
   -36.2392 -36.2389 -36.2197 -36.2194 -36.2169 -36.2164 -36.2113 -36.2108
   -36.2105 -36.2103 -36.2102 -36.2102 -36.2083 -36.2081 -36.2078 -36.2077
   -36.2075 -36.1998 -36.1992 -36.1939 -36.1936 -36.1784 -36.1675 -36.1079
   -36.1076 -36.1076 -36.0958 -36.0926 -36.0735 -36.0713 -36.0706 -36.0704
   -36.0655 -36.0653 -36.0603 -36.0599 -36.0596 -36.0592 -36.0592 -36.0588
   -36.0559 -36.0556 -36.0555 -36.0552 -36.0547 -36.0547 -36.0516 -36.0508
   -36.0469 -36.0376 -36.0368 -36.0356 -36.0352 -36.0337 -36.0322 -36.0319
   -36.0279 -36.0265 -36.0262 -36.0262 -36.0259 -36.0256 -36.0253 -36.0246
   -36.0240 -36.0229 -36.0229 -36.0218 -36.0192 -36.0186 -36.0179 -36.0156
   -36.0150 -36.0146 -36.0144 -36.0135 -36.0130 -36.0117 -36.0114 -36.0113
   -36.0108 -36.0105 -36.0103 -36.0098 -36.0086 -36.0082 -35.9905 -35.9899
   -35.9819 -35.9788 -35.9678 -35.9673 -35.9669 -35.9564 -35.9422 -35.9011
     3.5427   3.5994   4.0968   4.1389   4.5169   4.6112   4.6182   4.6206
     4.9007   4.9096   4.9714   5.0130   5.0158   5.0266   5.0786   5.0873
     5.2145   5.2252   5.4874   5.4948   5.4995   5.5076   5.5878   5.6008
     5.6191   5.6411   5.6520   5.6553   5.6872   5.6958   5.7008   5.7031
     6.0037   6.0056   6.0193   6.0243   8.6275   9.8032   9.8401   9.8925
     9.9166   9.9957   9.9967  10.0028  10.1046  10.1942  10.2026  10.2125
    10.3098  10.3234  10.3268  10.3304  10.4644  10.5102  10.5146  10.5180
    10.5194  10.5271  10.5308  10.5378  10.5665  10.6373  10.6406  10.6417
    10.7673  10.8895  10.9103  10.9865  10.9898  10.9949  11.1577  11.1922
    11.1930  11.1972  11.2801  11.2929  11.4774  11.5290  11.5377  11.5421
    11.5536  11.5792  11.6318  11.7312  11.7460  11.7476  11.7488  11.7527
    11.7541  11.7565  11.9056  11.9476  11.9498  11.9542  12.0612  12.0738
    12.0841  12.0842  12.0874  12.0909  12.1342  12.1480  12.1516  12.1546
    12.2734  12.2757  12.2867  12.2984  12.3005  12.3031  12.3547  12.3742
    12.4216  12.4231  12.4574  12.4958  12.5014  12.5151  12.5202  12.5244
    12.5263  12.5270  12.5371  12.5530  12.5563  12.5565  12.6082  12.6093
    12.6177  12.6270  12.7491  12.7544  12.7918  12.7937  12.7946  12.8095
    12.9480  12.9593  13.0333  13.0542  13.1039  13.1884  13.2013  13.3130
    13.3236  13.5939  13.5965  13.6012  13.6138  13.6379  13.6432  13.6489
    13.6515  13.6526  13.6588  13.6589  13.6986  13.7153  13.7246  13.7312
    13.7365  13.7386  13.7472  13.7938  13.8012  13.8163  13.8273  13.8308
    13.8439  13.8568  13.8735  13.8740  13.8777  13.8991  13.9073  13.9098
    13.9113  13.9134  13.9159  13.9222  13.9251  13.9408  13.9419  13.9453
    13.9691  13.9701  13.9791  13.9816  14.0293  14.0482  14.0496  14.0575
    14.0635  14.0692  14.0781  14.0825  14.0835  14.0911  14.0915  14.0922
    14.0956  14.1020  14.1032  14.1048  14.1960  14.2074  14.2150  14.2153
    14.2186  14.2258  14.2311  14.2366  14.2381  14.2381  14.2503  14.2648
    14.2683  14.2703  14.2741  14.2859  14.2867  14.2922  14.3701  14.3753
    14.6106  14.6156  14.6187  14.6477  14.7486  14.7524  14.7563  14.7633
    14.7745  14.7771  14.7912  14.7960  14.8473  14.8554  14.8639  14.8894
    14.8922  14.8923  14.9004  14.9011  14.9080  14.9177  14.9674  14.9800
    14.9982  15.0004  15.0007  15.0032  15.0054  15.0115  15.0284  15.0339
    15.0549  15.0640  15.0665  15.0682  15.0811  15.0871  15.0895  15.1045
    15.1359  15.1360  15.1386  15.1422  15.1628  15.1672  15.1722  15.1793
    15.1810  15.1907  15.2103  15.2184  15.2211  15.2294  15.2503  15.2513
    15.2550  15.2553  15.2656  15.2753  15.2761  15.2848  15.3013  15.3191
    15.3362  15.3521  15.3550  15.3578  15.3642  15.3653  15.3762  15.3791
    15.3849  15.3954  15.4053  15.4168  15.4328  15.4419  15.4438  15.4473
    15.4737  15.4745  15.5109  15.5128  15.5647  15.5707  15.5980  15.6015
    15.6032  15.6104  15.6140  15.6314  15.6454  15.6503  15.6518  15.6613
    15.6817  15.7083  15.7222  15.7273  15.7313  15.7317  15.7336  15.7346
    15.7566  15.7595  15.7620  15.7648  15.7700  15.7744  15.8226  15.8465
    15.8474  15.8523  15.8569  15.8579  15.8854  15.8935  15.9209  15.9392
    15.9503  15.9616  15.9656  15.9743  15.9789  15.9794  15.9836  15.9866
    16.0695  16.0741  16.0749  16.0786  16.1041  16.1091  16.1109  16.1132
    16.1228  16.1274  16.1332  16.1358  16.1364  16.1394  16.1700  16.1811
    16.1811  16.1837  16.1940  16.1980  16.2695  16.2767  16.2774  16.2788
    16.2837  16.2903  16.2932  16.2958  16.3015  16.3019  16.3389  16.3420
    16.3950  16.3950  16.3996  16.4017  16.4043  16.4122  16.5349  16.5454
    16.5462  16.5503  16.5516  16.5535  16.5660  16.5683  16.5707  16.5767
    16.5901  16.5928  16.5934  16.6006  16.6035  16.6118  16.6672  16.6687
    16.6748  16.6982  16.7024  16.7056  16.7102  16.7116  16.7125  16.7182
    16.7895  16.7910  16.8031  16.8099  16.8484  16.8576  16.8589  16.8668
    16.8675  16.8710  16.8763  16.8784  16.9047  16.9050  16.9143  16.9165
    17.4286  17.4413  17.6767  17.6892  17.7020  17.7509  17.7553  17.7605
    17.9145  17.9520  17.9535  17.9573  17.9827  17.9838  17.9891  17.9950
    18.0421  18.0559  18.0648  18.0680  18.3640  18.3700  18.3711  18.3843
    18.3928  18.4341  18.4439  18.4460  18.4484  18.4511  18.4549  18.4557
    18.6444  18.6538  18.6638  18.6676  19.0230  19.0270  19.0943  19.1166
    19.1180  19.1277  19.1756  19.2388  19.2472  19.2479  19.3514  19.3515
    19.3547  19.3558  19.4482  19.4889  19.5015  19.5054  19.5104  19.5461
    19.5493  19.5514  19.5937  19.6269  19.6338  19.6458  19.6595  19.6615
    20.0237  20.0535  20.0681  20.0782  20.0851  20.0894  20.6175  20.6259
    20.7803  20.9648  20.9960  21.0044  21.0544  21.2538  21.2711  21.2905

     occupation numbers 
     1.0000   1.0000   1.0000   1.0000   1.0000   1.0000   1.0000   1.0000
     1.0000   1.0000   1.0000   1.0000   1.0000   1.0000   1.0000   1.0000
     1.0000   1.0000   1.0000   1.0000   1.0000   1.0000   1.0000   1.0000
     1.0000   1.0000   1.0000   1.0000   1.0000   1.0000   1.0000   1.0000
     1.0000   1.0000   1.0000   1.0000   1.0000   1.0000   1.0000   1.0000
     1.0000   1.0000   1.0000   1.0000   1.0000   1.0000   1.0000   1.0000
     1.0000   1.0000   1.0000   1.0000   1.0000   1.0000   1.0000   1.0000
     1.0000   1.0000   1.0000   1.0000   1.0000   1.0000   1.0000   1.0000
     1.0000   1.0000   1.0000   1.0000   1.0000   1.0000   1.0000   1.0000
     1.0000   1.0000   1.0000   1.0000   1.0000   1.0000   1.0000   1.0000
     1.0000   1.0000   1.0000   1.0000   1.0000   1.0000   1.0000   1.0000
     1.0000   1.0000   1.0000   1.0000   1.0000   1.0000   1.0000   1.0000
     1.0000   1.0000   1.0000   1.0000   1.0000   1.0000   1.0000   1.0000
     1.0000   1.0000   1.0000   1.0000   1.0000   1.0000   1.0000   1.0000
     1.0000   1.0000   1.0000   1.0000   1.0000   1.0000   1.0000   1.0000
     1.0000   1.0000   1.0000   1.0000   1.0000   1.0000   1.0000   1.0000
     1.0000   1.0000   1.0000   1.0000   1.0000   1.0000   1.0000   1.0000
     1.0000   1.0000   1.0000   1.0000   1.0000   1.0000   1.0000   1.0000
     1.0000   1.0000   1.0000   1.0000   1.0000   1.0000   1.0000   1.0000
     1.0000   1.0000   1.0000   1.0000   1.0000   1.0000   1.0000   1.0000
     1.0000   1.0000   1.0000   1.0000   1.0000   1.0000   1.0000   1.0000
     1.0000   1.0000   1.0000   1.0000   1.0000   1.0000   1.0000   1.0000
     1.0000   1.0000   1.0000   1.0000   1.0000   1.0000   1.0000   1.0000
     1.0000   1.0000   1.0000   1.0000   1.0000   1.0000   1.0000   1.0000
     1.0000   1.0000   1.0000   1.0000   1.0000   1.0000   1.0000   1.0000
     1.0000   1.0000   1.0000   1.0000   1.0000   1.0000   1.0000   1.0000
     1.0000   1.0000   1.0000   1.0000   1.0000   1.0000   1.0000   1.0000
     1.0000   1.0000   1.0000   1.0000   1.0000   1.0000   1.0000   1.0000
     1.0000   1.0000   1.0000   1.0000   1.0000   1.0000   1.0000   1.0000
     1.0000   1.0000   1.0000   1.0000   1.0000   1.0000   1.0000   1.0000
     1.0000   1.0000   1.0000   1.0000   1.0000   1.0000   1.0000   1.0000
     1.0000   1.0000   1.0000   1.0000   1.0000   1.0000   1.0000   1.0000
     1.0000   1.0000   1.0000   1.0000   1.0000   1.0000   1.0000   1.0000
     1.0000   1.0000   1.0000   1.0000   1.0000   1.0000   1.0000   1.0000
     1.0000   1.0000   1.0000   1.0000   1.0000   1.0000   1.0000   1.0000
     1.0000   1.0000   1.0000   1.0000   1.0000   1.0000   1.0000   1.0000
     1.0000   1.0000   1.0000   1.0000   1.0000   1.0000   1.0000   1.0000
     1.0000   1.0000   1.0000   1.0000   1.0000   1.0000   1.0000   1.0000
     1.0000   1.0000   1.0000   1.0000   1.0000   1.0000   1.0000   1.0000
     1.0000   1.0000   1.0000   1.0000   1.0000   1.0000   1.0000   1.0000
     1.0000   1.0000   1.0000   1.0000   1.0000   1.0000   1.0000   1.0000
     1.0000   1.0000   1.0000   1.0000   1.0000   1.0000   1.0000   1.0000
     1.0000   1.0000   1.0000   1.0000   1.0000   1.0000   1.0000   1.0000
     1.0000   1.0000   1.0000   1.0000   1.0000   1.0000   1.0000   1.0000
     1.0000   1.0000   1.0000   1.0000   1.0000   1.0000   1.0000   1.0000
     1.0000   1.0000   1.0000   1.0000   1.0000   1.0000   1.0000   1.0000
     1.0000   1.0000   1.0000   1.0000   1.0000   1.0000   1.0000   1.0000
     1.0000   1.0000   1.0000   1.0000   1.0000   1.0000   1.0000   1.0000
     1.0000   1.0000   1.0000   1.0000   1.0000   1.0000   1.0000   1.0000
     1.0000   1.0000   1.0000   1.0000   1.0000   1.0000   1.0000   1.0000
     1.0000   1.0000   1.0000   1.0000   1.0000   1.0000   1.0000   1.0000
     1.0000   1.0000   1.0000   1.0000   1.0000   1.0000   1.0000   1.0000
     1.0000   1.0000   1.0000   1.0000   1.0000   1.0000   1.0000   1.0000
     1.0000   1.0000   1.0000   1.0000   1.0000   1.0000   1.0000   1.0000
     1.0000   1.0000   1.0000   1.0000   1.0000   1.0000   1.0000   1.0000
     1.0000   1.0000   1.0000   1.0000   1.0000   1.0000   1.0000   1.0000
     1.0000   1.0000   1.0000   1.0000   1.0000   1.0000   1.0000   1.0000
     1.0000   1.0000   1.0000   1.0000   1.0000   1.0000   1.0000   1.0000
     1.0000   1.0000   1.0000   1.0000   1.0000   1.0000   1.0000   1.0000
     1.0000   1.0000   1.0000   1.0000   1.0000   1.0000   1.0000   1.0000
     1.0000   1.0000   1.0000   1.0000   1.0000   1.0000   1.0000   1.0000
     1.0000   1.0000   1.0000   1.0000   1.0000   1.0000   1.0000   1.0000
     1.0000   1.0000   1.0000   1.0000   1.0000   1.0000   1.0000   1.0000
     1.0000   1.0000   1.0000   1.0000   1.0000   1.0000   1.0000   1.0000
     1.0000   1.0000   1.0000   1.0000   1.0000   1.0000   1.0000   1.0000
     1.0000   1.0000   1.0000   1.0000   1.0000   1.0000   1.0000   1.0000
     1.0000   1.0000   1.0000   1.0000   1.0000   1.0000   1.0000   1.0000
     1.0000   1.0000   1.0000   1.0000   1.0000   1.0000   1.0000   1.0000
     1.0000   1.0000   1.0000   1.0000   1.0000   1.0000   1.0000   1.0000
     1.0000   1.0000   1.0000   1.0000   1.0000   1.0000   1.0000   1.0000
     1.0000   1.0000   1.0000   1.0000   1.0000   1.0000   1.0000   1.0000
     1.0000   1.0000   1.0000   1.0000   1.0000   1.0000   1.0000   1.0000
     1.0000   1.0000   1.0000   1.0000   1.0000   1.0000   1.0000   1.0000
     1.0000   1.0000   1.0000   1.0000   1.0000   1.0000   1.0000   1.0000
     1.0000   1.0000   1.0000   1.0000   1.0000   1.0000   1.0000   1.0000
     1.0000   1.0000   1.0000   1.0000   1.0000   1.0000   1.0000   1.0000
     1.0000   1.0000   1.0000   1.0000   1.0000   1.0000   1.0000   1.0000
     1.0000   1.0000   1.0000   1.0000   1.0000   1.0000   1.0000   1.0000
     1.0000   1.0000   1.0000   1.0000   1.0000   1.0000   1.0000   1.0000
     1.0000   1.0000   1.0000   1.0000   1.0000   1.0000   1.0000   1.0000
     1.0000   1.0000   1.0000   1.0000   1.0000   1.0000   1.0000   1.0000
     1.0000   1.0000   1.0000   1.0000   1.0000   1.0000   1.0000   1.0000
     1.0000   1.0000   1.0000   1.0000   1.0000   1.0000   1.0000   1.0000
     1.0000   1.0000   1.0000   1.0000   1.0000   1.0000   1.0000   1.0000
     1.0000   1.0000   1.0000   1.0000   1.0000   1.0000   0.9998   0.9997
     0.9997   0.9997   0.9997   0.9997   0.9996   0.9996   0.9996   0.9995
     0.9994   0.9994   0.9993   0.9993   0.9992   0.9991   0.9977   0.9976
     0.9974   0.9962   0.9960   0.9958   0.9955   0.9954   0.9953   0.9949
     0.9860   0.9857   0.9833   0.9817   0.9707   0.9673   0.9668   0.9637
     0.9634   0.9619   0.9595   0.9586   0.9450   0.9448   0.9392   0.9378
     0.1304   0.1169   0.0079   0.0066   0.0055   0.0026   0.0024   0.0022
     0.0001   0.0001   0.0001   0.0001   0.0000   0.0000   0.0000   0.0000
     0.0000   0.0000   0.0000   0.0000   0.0000   0.0000   0.0000   0.0000
     0.0000   0.0000   0.0000   0.0000   0.0000   0.0000   0.0000   0.0000
     0.0000   0.0000   0.0000   0.0000   0.0000   0.0000   0.0000   0.0000
     0.0000   0.0000   0.0000   0.0000   0.0000   0.0000   0.0000   0.0000
     0.0000   0.0000   0.0000   0.0000   0.0000   0.0000   0.0000   0.0000
     0.0000   0.0000   0.0000   0.0000   0.0000   0.0000   0.0000   0.0000
     0.0000   0.0000   0.0000   0.0000   0.0000   0.0000   0.0000   0.0000
     0.0000   0.0000   0.0000   0.0000   0.0000   0.0000   0.0000   0.0000

          k = 0.0000-0.5774 0.2850 (100630 PWs)   bands (ev):

   -71.1988 -71.1924 -71.1921 -71.1809 -71.1805 -71.1795 -71.1793 -71.1791
   -71.1789 -71.1759 -71.1758 -71.1741 -71.1739 -71.1720 -71.1718 -71.1717
   -71.1714 -71.1713 -71.1712 -71.1711 -71.1710 -71.1707 -71.1705 -71.1688
   -71.1676 -71.1674 -71.1499 -71.1497 -71.1494 -71.1492 -71.1348 -71.1347
   -71.1343 -71.1341 -71.1333 -71.1332 -70.0716 -70.0715 -70.0189 -70.0188
   -70.0182 -70.0181 -70.0106 -70.0105 -70.0101 -70.0100 -70.0098 -70.0097
   -70.0060 -70.0057 -70.0056 -70.0012 -70.0003 -69.9988 -69.9987 -69.9984
   -69.9983 -69.9983 -69.9982 -69.9979 -69.9964 -69.9962 -69.9960 -69.9959
   -69.9843 -69.9796 -69.9789 -69.9747 -69.9683 -69.9682 -69.9247 -69.8930
   -37.3421 -37.3266 -37.3260 -37.3131 -37.3128 -37.3117 -37.3116 -37.3111
   -37.3101 -37.3092 -37.3090 -37.3088 -37.3077 -37.3059 -37.3058 -37.3056
   -37.3050 -37.3046 -37.3044 -37.3017 -37.3015 -37.3004 -37.2996 -37.2995
   -37.2968 -37.2963 -37.2828 -37.2820 -37.2788 -37.2782 -37.2667 -37.2658
   -37.2620 -37.2615 -37.2549 -37.2521 -37.2377 -37.2346 -37.2340 -37.2295
   -37.2252 -37.2247 -37.2233 -37.2231 -37.2228 -37.2227 -37.2217 -37.2206
   -37.2194 -37.2169 -37.2167 -37.2164 -37.2159 -37.2154 -37.2148 -37.2145
   -37.2141 -37.2140 -37.2127 -37.2125 -37.2119 -37.2107 -37.2105 -37.2100
   -37.2089 -37.2082 -37.2078 -37.2068 -37.2059 -37.2050 -37.2044 -37.2041
   -37.2034 -37.2033 -37.2021 -37.2012 -37.2010 -37.2005 -37.2001 -37.1995
   -37.1991 -37.1989 -37.1968 -37.1961 -37.1945 -37.1942 -37.1939 -37.1932
   -37.1896 -37.1891 -37.1887 -37.1886 -37.1826 -37.1821 -37.1803 -37.1798
   -37.1798 -37.1793 -37.1784 -37.1778 -37.1777 -37.1769 -37.1693 -37.1684
   -37.1591 -37.1587 -37.1586 -37.1578 -36.3315 -36.3310 -36.3011 -36.3006
   -36.2992 -36.2989 -36.2988 -36.2985 -36.2977 -36.2972 -36.2784 -36.2723
   -36.2392 -36.2389 -36.2197 -36.2194 -36.2169 -36.2164 -36.2112 -36.2108
   -36.2105 -36.2103 -36.2103 -36.2102 -36.2083 -36.2081 -36.2078 -36.2077
   -36.2075 -36.1998 -36.1992 -36.1939 -36.1936 -36.1784 -36.1675 -36.1079
   -36.1076 -36.1076 -36.0959 -36.0926 -36.0735 -36.0712 -36.0707 -36.0703
   -36.0655 -36.0653 -36.0603 -36.0599 -36.0596 -36.0593 -36.0591 -36.0588
   -36.0559 -36.0556 -36.0555 -36.0552 -36.0547 -36.0546 -36.0516 -36.0508
   -36.0469 -36.0376 -36.0369 -36.0356 -36.0352 -36.0336 -36.0323 -36.0320
   -36.0278 -36.0265 -36.0262 -36.0261 -36.0259 -36.0256 -36.0253 -36.0246
   -36.0242 -36.0231 -36.0229 -36.0210 -36.0192 -36.0186 -36.0182 -36.0159
   -36.0154 -36.0149 -36.0137 -36.0134 -36.0126 -36.0115 -36.0112 -36.0111
   -36.0108 -36.0105 -36.0102 -36.0101 -36.0088 -36.0084 -35.9905 -35.9899
   -35.9820 -35.9787 -35.9678 -35.9673 -35.9669 -35.9564 -35.9422 -35.9011
     3.6115   3.6702   4.1190   4.1965   4.2033   4.2057   4.6386   4.6719
     4.9466   4.9553   5.0036   5.0553   5.1204   5.1348   5.2528   5.2638
     5.2882   5.2925   5.3435   5.3602   5.4578   5.4722   5.5155   5.5255
     5.6187   5.6220   5.6320   5.6388   5.6516   5.6578   5.8558   5.8698
     5.8778   5.8846   6.1244   6.1405   8.6206   9.7619   9.7934   9.8734
     9.9105   9.9404   9.9603   9.9623  10.0134  10.1018  10.1033  10.1327
    10.1711  10.2349  10.2398  10.2432  10.2535  10.2638  10.3203  10.3436
    10.4375  10.5456  10.5501  10.5549  10.5812  10.5832  10.8398  10.8802
    10.8889  10.9215  11.0614  11.1065  11.1737  11.2880  11.2990  11.3273
    11.3376  11.3491  11.3590  11.3727  11.5371  11.5978  11.6106  11.6217
    11.6490  11.7122  11.7192  11.7204  11.7308  11.7391  11.7707  11.7810
    11.8929  11.9313  11.9621  11.9844  11.9910  11.9971  12.0638  12.0932
    12.0954  12.1028  12.1059  12.1086  12.1189  12.1247  12.1307  12.1347
    12.1923  12.2044  12.2392  12.2463  12.2636  12.2703  12.2889  12.2965
    12.3732  12.3788  12.4002  12.4011  12.4251  12.4293  12.4760  12.4772
    12.5083  12.5399  12.5532  12.5712  12.6125  12.6186  12.6387  12.6430
    12.6515  12.6539  12.7308  12.7422  12.7596  12.7829  12.8338  12.8486
    12.8894  12.8956  12.9949  13.0026  13.0322  13.0450  13.0940  13.1562
    13.1872  13.5844  13.5935  13.5977  13.6035  13.6354  13.6481  13.6563
    13.6638  13.6756  13.6809  13.7028  13.7057  13.7220  13.7267  13.7362
    13.7437  13.7609  13.7681  13.7901  13.8008  13.8055  13.8117  13.8263
    13.8282  13.8635  13.8668  13.8702  13.8732  13.8749  13.8781  13.8882
    13.8943  13.8968  13.9148  13.9269  13.9296  13.9379  13.9392  13.9421
    13.9618  13.9706  13.9744  13.9821  14.0120  14.0248  14.0416  14.0473
    14.0563  14.0644  14.0676  14.0708  14.0722  14.0860  14.0869  14.0974
    14.1209  14.1262  14.1622  14.1696  14.1761  14.1803  14.1920  14.1978
    14.2020  14.2110  14.2143  14.2161  14.2191  14.2230  14.2334  14.2356
    14.2687  14.2713  14.2865  14.2900  14.3800  14.3861  14.4061  14.4098
    14.5259  14.5284  14.5571  14.5734  14.7596  14.7769  14.7939  14.7975
    14.8274  14.8518  14.8727  14.8733  14.8759  14.8809  14.8950  14.9055
    14.9212  14.9412  14.9439  14.9463  14.9528  14.9610  14.9754  14.9806
    15.0016  15.0121  15.0171  15.0212  15.0291  15.0327  15.0406  15.0430
    15.0477  15.0512  15.0556  15.0611  15.0846  15.0956  15.0995  15.1077
    15.1160  15.1192  15.1280  15.1309  15.1323  15.1387  15.1417  15.1452
    15.1508  15.1568  15.1599  15.1690  15.1835  15.1920  15.1963  15.2091
    15.2498  15.2565  15.2823  15.2881  15.2887  15.2941  15.3032  15.3085
    15.3186  15.3208  15.3256  15.3305  15.3542  15.3588  15.3820  15.3843
    15.4212  15.4369  15.4447  15.4507  15.4586  15.4644  15.4753  15.4802
    15.4896  15.4933  15.5316  15.5454  15.5579  15.5602  15.5649  15.5686
    15.5832  15.5858  15.6109  15.6209  15.6244  15.6267  15.6347  15.6361
    15.6500  15.6551  15.6999  15.7251  15.7460  15.7519  15.7606  15.7680
    15.7823  15.7916  15.7991  15.8031  15.8255  15.8367  15.8415  15.8475
    15.8504  15.8646  15.8682  15.8763  15.8882  15.8971  15.9003  15.9006
    15.9147  15.9203  15.9536  15.9582  15.9657  15.9745  16.0167  16.0214
    16.0268  16.0282  16.0374  16.0458  16.0683  16.0700  16.0730  16.0750
    16.0870  16.0936  16.0968  16.1046  16.1283  16.1333  16.1731  16.1783
    16.1891  16.1967  16.2142  16.2220  16.2251  16.2269  16.2332  16.2363
    16.2684  16.2708  16.2842  16.2865  16.2888  16.2923  16.3085  16.3106
    16.4049  16.4104  16.4354  16.4369  16.4531  16.4712  16.4972  16.5018
    16.5317  16.5371  16.5395  16.5467  16.5557  16.5567  16.5635  16.5656
    16.5760  16.5804  16.5964  16.6001  16.6377  16.6439  16.6544  16.6552
    16.6978  16.6995  16.7194  16.7209  16.7694  16.7747  16.7880  16.7902
    16.7956  16.7977  16.8005  16.8028  16.8207  16.8302  16.8377  16.8432
    16.8717  16.8781  16.9120  16.9306  16.9696  16.9786  17.0762  17.0793
    17.3434  17.3532  17.5192  17.5510  17.7053  17.7121  17.7887  17.8212
    17.8543  17.8624  17.9125  17.9316  18.0083  18.0135  18.0284  18.0320
    18.0842  18.0875  18.1113  18.1245  18.1678  18.1793  18.3496  18.3646
    18.4305  18.4337  18.4940  18.4975  18.5961  18.6069  18.7019  18.7468
    18.7773  18.8014  18.8126  18.8168  18.8242  18.8317  18.9131  18.9591
    18.9873  18.9933  19.0694  19.0714  19.1276  19.1335  19.1848  19.1914
    19.2519  19.2768  19.3912  19.3930  19.5137  19.5594  19.5700  19.5759
    19.6253  19.6522  19.6599  19.6642  19.6768  19.6775  19.7182  19.7295
    19.7834  19.7955  19.8891  19.9184  20.0280  20.0561  20.2299  20.2420
    20.6755  20.6998  20.8722  20.9017  20.9475  21.1649  21.2015  21.5455

     occupation numbers 
     1.0000   1.0000   1.0000   1.0000   1.0000   1.0000   1.0000   1.0000
     1.0000   1.0000   1.0000   1.0000   1.0000   1.0000   1.0000   1.0000
     1.0000   1.0000   1.0000   1.0000   1.0000   1.0000   1.0000   1.0000
     1.0000   1.0000   1.0000   1.0000   1.0000   1.0000   1.0000   1.0000
     1.0000   1.0000   1.0000   1.0000   1.0000   1.0000   1.0000   1.0000
     1.0000   1.0000   1.0000   1.0000   1.0000   1.0000   1.0000   1.0000
     1.0000   1.0000   1.0000   1.0000   1.0000   1.0000   1.0000   1.0000
     1.0000   1.0000   1.0000   1.0000   1.0000   1.0000   1.0000   1.0000
     1.0000   1.0000   1.0000   1.0000   1.0000   1.0000   1.0000   1.0000
     1.0000   1.0000   1.0000   1.0000   1.0000   1.0000   1.0000   1.0000
     1.0000   1.0000   1.0000   1.0000   1.0000   1.0000   1.0000   1.0000
     1.0000   1.0000   1.0000   1.0000   1.0000   1.0000   1.0000   1.0000
     1.0000   1.0000   1.0000   1.0000   1.0000   1.0000   1.0000   1.0000
     1.0000   1.0000   1.0000   1.0000   1.0000   1.0000   1.0000   1.0000
     1.0000   1.0000   1.0000   1.0000   1.0000   1.0000   1.0000   1.0000
     1.0000   1.0000   1.0000   1.0000   1.0000   1.0000   1.0000   1.0000
     1.0000   1.0000   1.0000   1.0000   1.0000   1.0000   1.0000   1.0000
     1.0000   1.0000   1.0000   1.0000   1.0000   1.0000   1.0000   1.0000
     1.0000   1.0000   1.0000   1.0000   1.0000   1.0000   1.0000   1.0000
     1.0000   1.0000   1.0000   1.0000   1.0000   1.0000   1.0000   1.0000
     1.0000   1.0000   1.0000   1.0000   1.0000   1.0000   1.0000   1.0000
     1.0000   1.0000   1.0000   1.0000   1.0000   1.0000   1.0000   1.0000
     1.0000   1.0000   1.0000   1.0000   1.0000   1.0000   1.0000   1.0000
     1.0000   1.0000   1.0000   1.0000   1.0000   1.0000   1.0000   1.0000
     1.0000   1.0000   1.0000   1.0000   1.0000   1.0000   1.0000   1.0000
     1.0000   1.0000   1.0000   1.0000   1.0000   1.0000   1.0000   1.0000
     1.0000   1.0000   1.0000   1.0000   1.0000   1.0000   1.0000   1.0000
     1.0000   1.0000   1.0000   1.0000   1.0000   1.0000   1.0000   1.0000
     1.0000   1.0000   1.0000   1.0000   1.0000   1.0000   1.0000   1.0000
     1.0000   1.0000   1.0000   1.0000   1.0000   1.0000   1.0000   1.0000
     1.0000   1.0000   1.0000   1.0000   1.0000   1.0000   1.0000   1.0000
     1.0000   1.0000   1.0000   1.0000   1.0000   1.0000   1.0000   1.0000
     1.0000   1.0000   1.0000   1.0000   1.0000   1.0000   1.0000   1.0000
     1.0000   1.0000   1.0000   1.0000   1.0000   1.0000   1.0000   1.0000
     1.0000   1.0000   1.0000   1.0000   1.0000   1.0000   1.0000   1.0000
     1.0000   1.0000   1.0000   1.0000   1.0000   1.0000   1.0000   1.0000
     1.0000   1.0000   1.0000   1.0000   1.0000   1.0000   1.0000   1.0000
     1.0000   1.0000   1.0000   1.0000   1.0000   1.0000   1.0000   1.0000
     1.0000   1.0000   1.0000   1.0000   1.0000   1.0000   1.0000   1.0000
     1.0000   1.0000   1.0000   1.0000   1.0000   1.0000   1.0000   1.0000
     1.0000   1.0000   1.0000   1.0000   1.0000   1.0000   1.0000   1.0000
     1.0000   1.0000   1.0000   1.0000   1.0000   1.0000   1.0000   1.0000
     1.0000   1.0000   1.0000   1.0000   1.0000   1.0000   1.0000   1.0000
     1.0000   1.0000   1.0000   1.0000   1.0000   1.0000   1.0000   1.0000
     1.0000   1.0000   1.0000   1.0000   1.0000   1.0000   1.0000   1.0000
     1.0000   1.0000   1.0000   1.0000   1.0000   1.0000   1.0000   1.0000
     1.0000   1.0000   1.0000   1.0000   1.0000   1.0000   1.0000   1.0000
     1.0000   1.0000   1.0000   1.0000   1.0000   1.0000   1.0000   1.0000
     1.0000   1.0000   1.0000   1.0000   1.0000   1.0000   1.0000   1.0000
     1.0000   1.0000   1.0000   1.0000   1.0000   1.0000   1.0000   1.0000
     1.0000   1.0000   1.0000   1.0000   1.0000   1.0000   1.0000   1.0000
     1.0000   1.0000   1.0000   1.0000   1.0000   1.0000   1.0000   1.0000
     1.0000   1.0000   1.0000   1.0000   1.0000   1.0000   1.0000   1.0000
     1.0000   1.0000   1.0000   1.0000   1.0000   1.0000   1.0000   1.0000
     1.0000   1.0000   1.0000   1.0000   1.0000   1.0000   1.0000   1.0000
     1.0000   1.0000   1.0000   1.0000   1.0000   1.0000   1.0000   1.0000
     1.0000   1.0000   1.0000   1.0000   1.0000   1.0000   1.0000   1.0000
     1.0000   1.0000   1.0000   1.0000   1.0000   1.0000   1.0000   1.0000
     1.0000   1.0000   1.0000   1.0000   1.0000   1.0000   1.0000   1.0000
     1.0000   1.0000   1.0000   1.0000   1.0000   1.0000   1.0000   1.0000
     1.0000   1.0000   1.0000   1.0000   1.0000   1.0000   1.0000   1.0000
     1.0000   1.0000   1.0000   1.0000   1.0000   1.0000   1.0000   1.0000
     1.0000   1.0000   1.0000   1.0000   1.0000   1.0000   1.0000   1.0000
     1.0000   1.0000   1.0000   1.0000   1.0000   1.0000   1.0000   1.0000
     1.0000   1.0000   1.0000   1.0000   1.0000   1.0000   1.0000   1.0000
     1.0000   1.0000   1.0000   1.0000   1.0000   1.0000   1.0000   1.0000
     1.0000   1.0000   1.0000   1.0000   1.0000   1.0000   1.0000   1.0000
     1.0000   1.0000   1.0000   1.0000   1.0000   1.0000   1.0000   1.0000
     1.0000   1.0000   1.0000   1.0000   1.0000   1.0000   1.0000   1.0000
     1.0000   1.0000   1.0000   1.0000   1.0000   1.0000   1.0000   1.0000
     1.0000   1.0000   1.0000   1.0000   1.0000   1.0000   1.0000   1.0000
     1.0000   1.0000   1.0000   1.0000   1.0000   1.0000   1.0000   1.0000
     1.0000   1.0000   1.0000   1.0000   1.0000   1.0000   1.0000   1.0000
     1.0000   1.0000   1.0000   1.0000   1.0000   1.0000   1.0000   1.0000
     1.0000   1.0000   1.0000   1.0000   1.0000   1.0000   1.0000   1.0000
     1.0000   1.0000   1.0000   1.0000   1.0000   1.0000   1.0000   1.0000
     1.0000   1.0000   1.0000   1.0000   1.0000   1.0000   1.0000   1.0000
     1.0000   1.0000   1.0000   1.0000   1.0000   1.0000   1.0000   1.0000
     1.0000   1.0000   1.0000   1.0000   1.0000   1.0000   1.0000   1.0000
     1.0000   1.0000   1.0000   1.0000   1.0000   1.0000   1.0000   1.0000
     1.0000   1.0000   1.0000   1.0000   1.0000   1.0000   1.0000   1.0000
     1.0000   1.0000   1.0000   1.0000   1.0000   1.0000   1.0000   1.0000
     1.0000   1.0000   1.0000   1.0000   1.0000   1.0000   1.0000   1.0000
     1.0000   1.0000   1.0000   1.0000   1.0000   1.0000   1.0000   1.0000
     1.0000   1.0000   1.0000   1.0000   1.0000   0.9999   0.9999   0.9999
     0.9998   0.9998   0.9998   0.9997   0.9997   0.9997   0.9996   0.9996
     0.9995   0.9995   0.9993   0.9993   0.9986   0.9984   0.9981   0.9981
     0.9962   0.9961   0.9948   0.9947   0.9893   0.9885   0.9863   0.9858
     0.9848   0.9844   0.9838   0.9833   0.9790   0.9764   0.9742   0.9724
     0.9616   0.9587   0.9406   0.9283   0.8963   0.8876   0.7601   0.7551
     0.2476   0.2318   0.0553   0.0391   0.0052   0.0047   0.0014   0.0008
     0.0004   0.0004   0.0001   0.0001   0.0000   0.0000   0.0000   0.0000
     0.0000   0.0000   0.0000   0.0000   0.0000   0.0000   0.0000   0.0000
     0.0000   0.0000   0.0000   0.0000   0.0000   0.0000   0.0000   0.0000
     0.0000   0.0000   0.0000   0.0000   0.0000   0.0000   0.0000   0.0000
     0.0000   0.0000   0.0000   0.0000   0.0000   0.0000   0.0000   0.0000
     0.0000   0.0000   0.0000   0.0000   0.0000   0.0000   0.0000   0.0000
     0.0000   0.0000   0.0000   0.0000   0.0000   0.0000   0.0000   0.0000
     0.0000   0.0000   0.0000   0.0000   0.0000   0.0000   0.0000   0.0000
     0.0000   0.0000   0.0000   0.0000   0.0000   0.0000   0.0000   0.0000

          k = 0.0000-0.5774-0.5700 (100572 PWs)   bands (ev):

   -71.1988 -71.1924 -71.1921 -71.1809 -71.1805 -71.1795 -71.1793 -71.1791
   -71.1790 -71.1759 -71.1758 -71.1741 -71.1739 -71.1720 -71.1719 -71.1717
   -71.1714 -71.1713 -71.1712 -71.1711 -71.1710 -71.1707 -71.1705 -71.1688
   -71.1676 -71.1674 -71.1499 -71.1497 -71.1494 -71.1492 -71.1348 -71.1347
   -71.1343 -71.1341 -71.1333 -71.1332 -70.0716 -70.0715 -70.0189 -70.0188
   -70.0182 -70.0181 -70.0106 -70.0105 -70.0101 -70.0100 -70.0098 -70.0097
   -70.0060 -70.0057 -70.0056 -70.0012 -70.0003 -69.9988 -69.9987 -69.9984
   -69.9983 -69.9983 -69.9982 -69.9979 -69.9964 -69.9962 -69.9960 -69.9959
   -69.9843 -69.9796 -69.9789 -69.9747 -69.9683 -69.9682 -69.9247 -69.8930
   -37.3421 -37.3266 -37.3260 -37.3136 -37.3133 -37.3120 -37.3116 -37.3111
   -37.3105 -37.3094 -37.3081 -37.3077 -37.3072 -37.3062 -37.3060 -37.3053
   -37.3052 -37.3049 -37.3037 -37.3009 -37.3006 -37.3004 -37.3001 -37.2997
   -37.2974 -37.2969 -37.2826 -37.2819 -37.2789 -37.2784 -37.2665 -37.2657
   -37.2622 -37.2616 -37.2548 -37.2522 -37.2377 -37.2346 -37.2340 -37.2295
   -37.2252 -37.2247 -37.2233 -37.2231 -37.2228 -37.2226 -37.2217 -37.2205
   -37.2194 -37.2169 -37.2167 -37.2164 -37.2159 -37.2154 -37.2148 -37.2145
   -37.2141 -37.2140 -37.2127 -37.2125 -37.2119 -37.2107 -37.2105 -37.2099
   -37.2089 -37.2082 -37.2078 -37.2067 -37.2059 -37.2050 -37.2044 -37.2041
   -37.2033 -37.2032 -37.2021 -37.2012 -37.2010 -37.2005 -37.2001 -37.1995
   -37.1992 -37.1989 -37.1967 -37.1961 -37.1944 -37.1943 -37.1938 -37.1932
   -37.1896 -37.1891 -37.1887 -37.1886 -37.1826 -37.1821 -37.1804 -37.1798
   -37.1798 -37.1793 -37.1784 -37.1778 -37.1777 -37.1769 -37.1693 -37.1684
   -37.1592 -37.1587 -37.1586 -37.1577 -36.3315 -36.3310 -36.3011 -36.3006
   -36.2993 -36.2989 -36.2987 -36.2984 -36.2977 -36.2972 -36.2784 -36.2723
   -36.2392 -36.2389 -36.2196 -36.2194 -36.2169 -36.2164 -36.2112 -36.2108
   -36.2105 -36.2103 -36.2103 -36.2102 -36.2082 -36.2081 -36.2078 -36.2077
   -36.2075 -36.1998 -36.1991 -36.1939 -36.1936 -36.1784 -36.1675 -36.1079
   -36.1076 -36.1076 -36.0958 -36.0925 -36.0735 -36.0711 -36.0708 -36.0702
   -36.0655 -36.0653 -36.0603 -36.0599 -36.0596 -36.0593 -36.0591 -36.0588
   -36.0559 -36.0556 -36.0555 -36.0551 -36.0547 -36.0546 -36.0516 -36.0508
   -36.0468 -36.0375 -36.0370 -36.0355 -36.0352 -36.0334 -36.0325 -36.0321
   -36.0277 -36.0264 -36.0262 -36.0260 -36.0259 -36.0256 -36.0253 -36.0246
   -36.0242 -36.0232 -36.0229 -36.0201 -36.0192 -36.0188 -36.0186 -36.0161
   -36.0156 -36.0151 -36.0135 -36.0133 -36.0118 -36.0112 -36.0111 -36.0109
   -36.0108 -36.0107 -36.0105 -36.0101 -36.0090 -36.0086 -35.9905 -35.9899
   -35.9820 -35.9787 -35.9678 -35.9673 -35.9669 -35.9564 -35.9422 -35.9011
     3.7725   3.8697   3.8753   3.8795   4.3260   4.3805   4.3869   4.3882
     5.0781   5.0885   5.0922   5.0953   5.1995   5.2692   5.2702   5.2721
     5.3163   5.3557   5.3647   5.3695   5.3771   5.3784   5.5231   5.5346
     5.5752   5.5828   5.5922   5.6034   5.7122   5.7227   5.7322   5.7366
     5.9489   5.9576   6.1713   6.1870   8.6137   9.6568   9.7243   9.7989
     9.8041   9.9258   9.9285  10.0500  10.0536  10.0599  10.0627  10.0706
    10.0720  10.0748  10.0995  10.1111  10.2337  10.3624  10.3674  10.3844
    10.3903  10.3907  10.3942  10.4089  10.5250  10.5270  10.8809  10.9568
    10.9616  10.9797  11.0997  11.1049  11.2466  11.4369  11.4426  11.4427
    11.4521  11.5103  11.5984  11.7157  11.7229  11.7242  11.7388  11.7388
    11.7447  11.7470  11.7545  11.7572  11.8248  11.8376  11.8715  11.8749
    11.8761  11.8821  11.8942  11.9050  12.0642  12.0736  12.0886  12.1493
    12.1497  12.1528  12.1773  12.1866  12.1886  12.1990  12.1999  12.2000
    12.2208  12.2259  12.2321  12.2362  12.2465  12.2530  12.2656  12.2732
    12.2771  12.2809  12.3112  12.3164  12.3164  12.3206  12.3694  12.3716
    12.3784  12.3784  12.3838  12.3904  12.5235  12.5399  12.6758  12.7118
    12.7170  12.7217  12.7226  12.7277  12.7376  12.7386  12.7427  12.7494
    12.9492  12.9579  12.9733  12.9760  12.9797  12.9842  12.9879  13.0029
    13.1096  13.5757  13.5825  13.5952  13.6008  13.6062  13.6405  13.6657
    13.6752  13.6848  13.6901  13.6943  13.7083  13.7382  13.7439  13.7464
    13.7524  13.7731  13.7766  13.7811  13.7952  13.7992  13.8047  13.8254
    13.8313  13.8462  13.8548  13.8577  13.8593  13.8626  13.8691  13.8720
    13.8804  13.8952  13.9184  13.9476  13.9546  13.9598  13.9622  13.9659
    13.9696  13.9766  13.9812  13.9826  13.9853  13.9878  13.9894  13.9894
    14.0533  14.0574  14.0586  14.0794  14.0825  14.0894  14.1021  14.1108
    14.1319  14.1341  14.1383  14.1449  14.1488  14.1558  14.1619  14.1777
    14.1869  14.1981  14.2308  14.2316  14.2341  14.2359  14.2816  14.2849
    14.3050  14.3112  14.3126  14.3156  14.3592  14.3667  14.3742  14.3759
    14.5011  14.5058  14.5068  14.5106  14.7887  14.7920  14.8097  14.8155
    14.8936  14.8980  14.8994  14.9025  14.9186  14.9371  14.9463  14.9521
    14.9693  14.9750  14.9798  14.9856  14.9939  14.9967  15.0005  15.0212
    15.0257  15.0276  15.0310  15.0315  15.0340  15.0396  15.0449  15.0514
    15.0534  15.0546  15.0634  15.0670  15.0699  15.0731  15.0776  15.0806
    15.0835  15.0854  15.0968  15.1029  15.1032  15.1045  15.1151  15.1177
    15.1241  15.1262  15.1288  15.1312  15.1825  15.1827  15.1954  15.1982
    15.2245  15.2283  15.2575  15.2647  15.3141  15.3165  15.3217  15.3248
    15.3614  15.3647  15.3723  15.3780  15.3799  15.3825  15.3853  15.3898
    15.3986  15.3992  15.4013  15.4013  15.4741  15.4777  15.4894  15.4975
    15.5065  15.5277  15.5280  15.5373  15.5410  15.5420  15.5501  15.5516
    15.5553  15.5607  15.5615  15.5673  15.6299  15.6319  15.6360  15.6383
    15.6953  15.6994  15.7064  15.7089  15.7289  15.7296  15.7316  15.7495
    15.7827  15.8228  15.8284  15.8322  15.8405  15.8678  15.8694  15.8710
    15.8720  15.8783  15.8882  15.8907  15.8937  15.8978  15.9021  15.9109
    15.9127  15.9149  15.9528  15.9562  15.9574  15.9577  15.9637  15.9663
    16.0077  16.0154  16.0179  16.0261  16.0271  16.0287  16.0441  16.0486
    16.0529  16.0569  16.0603  16.0606  16.0881  16.0978  16.1590  16.1701
    16.2000  16.2021  16.2070  16.2154  16.2166  16.2256  16.2557  16.2686
    16.2687  16.2702  16.2730  16.2734  16.2758  16.2782  16.2786  16.2860
    16.4154  16.4216  16.4328  16.4362  16.4409  16.4413  16.4813  16.4930
    16.5014  16.5128  16.5401  16.5408  16.5631  16.5658  16.5692  16.5717
    16.5898  16.5913  16.5980  16.6003  16.6735  16.6771  16.6795  16.6831
    16.6943  16.6998  16.7006  16.7065  16.7355  16.7368  16.7436  16.7453
    16.8166  16.8241  16.8284  16.8289  16.8803  16.9156  16.9232  16.9255
    16.9259  16.9284  16.9318  16.9341  17.1115  17.1456  17.1486  17.1550
    17.3017  17.3063  17.3167  17.3181  17.7460  17.7620  17.7719  17.7719
    17.7760  17.7804  17.8621  17.8651  17.8676  17.8703  18.0255  18.0331
    18.0784  18.0857  18.2845  18.3219  18.3528  18.3677  18.4280  18.4360
    18.4404  18.4456  18.5114  18.5179  18.7367  18.7405  18.7464  18.7557
    18.7976  18.8306  18.8504  18.8932  18.9195  18.9308  18.9313  18.9415
    18.9420  18.9510  18.9691  18.9786  18.9835  18.9910  19.0575  19.0625
    19.1715  19.2153  19.2666  19.2973  19.2999  19.3117  19.3392  19.3429
    19.3461  19.3479  19.6195  19.6449  19.6519  19.6530  19.8608  19.8674
    19.8702  19.8798  19.9475  20.0044  20.0089  20.0154  20.0493  20.0691
    20.5472  20.5662  20.7037  20.7287  21.0409  21.0764  21.1021  22.0894

     occupation numbers 
     1.0000   1.0000   1.0000   1.0000   1.0000   1.0000   1.0000   1.0000
     1.0000   1.0000   1.0000   1.0000   1.0000   1.0000   1.0000   1.0000
     1.0000   1.0000   1.0000   1.0000   1.0000   1.0000   1.0000   1.0000
     1.0000   1.0000   1.0000   1.0000   1.0000   1.0000   1.0000   1.0000
     1.0000   1.0000   1.0000   1.0000   1.0000   1.0000   1.0000   1.0000
     1.0000   1.0000   1.0000   1.0000   1.0000   1.0000   1.0000   1.0000
     1.0000   1.0000   1.0000   1.0000   1.0000   1.0000   1.0000   1.0000
     1.0000   1.0000   1.0000   1.0000   1.0000   1.0000   1.0000   1.0000
     1.0000   1.0000   1.0000   1.0000   1.0000   1.0000   1.0000   1.0000
     1.0000   1.0000   1.0000   1.0000   1.0000   1.0000   1.0000   1.0000
     1.0000   1.0000   1.0000   1.0000   1.0000   1.0000   1.0000   1.0000
     1.0000   1.0000   1.0000   1.0000   1.0000   1.0000   1.0000   1.0000
     1.0000   1.0000   1.0000   1.0000   1.0000   1.0000   1.0000   1.0000
     1.0000   1.0000   1.0000   1.0000   1.0000   1.0000   1.0000   1.0000
     1.0000   1.0000   1.0000   1.0000   1.0000   1.0000   1.0000   1.0000
     1.0000   1.0000   1.0000   1.0000   1.0000   1.0000   1.0000   1.0000
     1.0000   1.0000   1.0000   1.0000   1.0000   1.0000   1.0000   1.0000
     1.0000   1.0000   1.0000   1.0000   1.0000   1.0000   1.0000   1.0000
     1.0000   1.0000   1.0000   1.0000   1.0000   1.0000   1.0000   1.0000
     1.0000   1.0000   1.0000   1.0000   1.0000   1.0000   1.0000   1.0000
     1.0000   1.0000   1.0000   1.0000   1.0000   1.0000   1.0000   1.0000
     1.0000   1.0000   1.0000   1.0000   1.0000   1.0000   1.0000   1.0000
     1.0000   1.0000   1.0000   1.0000   1.0000   1.0000   1.0000   1.0000
     1.0000   1.0000   1.0000   1.0000   1.0000   1.0000   1.0000   1.0000
     1.0000   1.0000   1.0000   1.0000   1.0000   1.0000   1.0000   1.0000
     1.0000   1.0000   1.0000   1.0000   1.0000   1.0000   1.0000   1.0000
     1.0000   1.0000   1.0000   1.0000   1.0000   1.0000   1.0000   1.0000
     1.0000   1.0000   1.0000   1.0000   1.0000   1.0000   1.0000   1.0000
     1.0000   1.0000   1.0000   1.0000   1.0000   1.0000   1.0000   1.0000
     1.0000   1.0000   1.0000   1.0000   1.0000   1.0000   1.0000   1.0000
     1.0000   1.0000   1.0000   1.0000   1.0000   1.0000   1.0000   1.0000
     1.0000   1.0000   1.0000   1.0000   1.0000   1.0000   1.0000   1.0000
     1.0000   1.0000   1.0000   1.0000   1.0000   1.0000   1.0000   1.0000
     1.0000   1.0000   1.0000   1.0000   1.0000   1.0000   1.0000   1.0000
     1.0000   1.0000   1.0000   1.0000   1.0000   1.0000   1.0000   1.0000
     1.0000   1.0000   1.0000   1.0000   1.0000   1.0000   1.0000   1.0000
     1.0000   1.0000   1.0000   1.0000   1.0000   1.0000   1.0000   1.0000
     1.0000   1.0000   1.0000   1.0000   1.0000   1.0000   1.0000   1.0000
     1.0000   1.0000   1.0000   1.0000   1.0000   1.0000   1.0000   1.0000
     1.0000   1.0000   1.0000   1.0000   1.0000   1.0000   1.0000   1.0000
     1.0000   1.0000   1.0000   1.0000   1.0000   1.0000   1.0000   1.0000
     1.0000   1.0000   1.0000   1.0000   1.0000   1.0000   1.0000   1.0000
     1.0000   1.0000   1.0000   1.0000   1.0000   1.0000   1.0000   1.0000
     1.0000   1.0000   1.0000   1.0000   1.0000   1.0000   1.0000   1.0000
     1.0000   1.0000   1.0000   1.0000   1.0000   1.0000   1.0000   1.0000
     1.0000   1.0000   1.0000   1.0000   1.0000   1.0000   1.0000   1.0000
     1.0000   1.0000   1.0000   1.0000   1.0000   1.0000   1.0000   1.0000
     1.0000   1.0000   1.0000   1.0000   1.0000   1.0000   1.0000   1.0000
     1.0000   1.0000   1.0000   1.0000   1.0000   1.0000   1.0000   1.0000
     1.0000   1.0000   1.0000   1.0000   1.0000   1.0000   1.0000   1.0000
     1.0000   1.0000   1.0000   1.0000   1.0000   1.0000   1.0000   1.0000
     1.0000   1.0000   1.0000   1.0000   1.0000   1.0000   1.0000   1.0000
     1.0000   1.0000   1.0000   1.0000   1.0000   1.0000   1.0000   1.0000
     1.0000   1.0000   1.0000   1.0000   1.0000   1.0000   1.0000   1.0000
     1.0000   1.0000   1.0000   1.0000   1.0000   1.0000   1.0000   1.0000
     1.0000   1.0000   1.0000   1.0000   1.0000   1.0000   1.0000   1.0000
     1.0000   1.0000   1.0000   1.0000   1.0000   1.0000   1.0000   1.0000
     1.0000   1.0000   1.0000   1.0000   1.0000   1.0000   1.0000   1.0000
     1.0000   1.0000   1.0000   1.0000   1.0000   1.0000   1.0000   1.0000
     1.0000   1.0000   1.0000   1.0000   1.0000   1.0000   1.0000   1.0000
     1.0000   1.0000   1.0000   1.0000   1.0000   1.0000   1.0000   1.0000
     1.0000   1.0000   1.0000   1.0000   1.0000   1.0000   1.0000   1.0000
     1.0000   1.0000   1.0000   1.0000   1.0000   1.0000   1.0000   1.0000
     1.0000   1.0000   1.0000   1.0000   1.0000   1.0000   1.0000   1.0000
     1.0000   1.0000   1.0000   1.0000   1.0000   1.0000   1.0000   1.0000
     1.0000   1.0000   1.0000   1.0000   1.0000   1.0000   1.0000   1.0000
     1.0000   1.0000   1.0000   1.0000   1.0000   1.0000   1.0000   1.0000
     1.0000   1.0000   1.0000   1.0000   1.0000   1.0000   1.0000   1.0000
     1.0000   1.0000   1.0000   1.0000   1.0000   1.0000   1.0000   1.0000
     1.0000   1.0000   1.0000   1.0000   1.0000   1.0000   1.0000   1.0000
     1.0000   1.0000   1.0000   1.0000   1.0000   1.0000   1.0000   1.0000
     1.0000   1.0000   1.0000   1.0000   1.0000   1.0000   1.0000   1.0000
     1.0000   1.0000   1.0000   1.0000   1.0000   1.0000   1.0000   1.0000
     1.0000   1.0000   1.0000   1.0000   1.0000   1.0000   1.0000   1.0000
     1.0000   1.0000   1.0000   1.0000   1.0000   1.0000   1.0000   1.0000
     1.0000   1.0000   1.0000   1.0000   1.0000   1.0000   1.0000   1.0000
     1.0000   1.0000   1.0000   1.0000   1.0000   1.0000   1.0000   1.0000
     1.0000   1.0000   1.0000   1.0000   1.0000   1.0000   1.0000   1.0000
     1.0000   1.0000   1.0000   1.0000   1.0000   1.0000   1.0000   1.0000
     1.0000   1.0000   1.0000   1.0000   1.0000   1.0000   1.0000   1.0000
     1.0000   1.0000   1.0000   1.0000   1.0000   1.0000   1.0000   1.0000
     1.0000   1.0000   1.0000   1.0000   1.0000   1.0000   1.0000   1.0000
     1.0000   1.0000   1.0000   1.0000   1.0000   1.0000   1.0000   1.0000
     1.0000   1.0000   1.0000   1.0000   1.0000   1.0000   1.0000   1.0000
     1.0000   1.0000   1.0000   1.0000   1.0000   1.0000   0.9999   0.9999
     0.9999   0.9999   0.9998   0.9998   0.9996   0.9996   0.9996   0.9996
     0.9994   0.9994   0.9993   0.9993   0.9974   0.9973   0.9972   0.9970
     0.9964   0.9961   0.9961   0.9957   0.9934   0.9933   0.9926   0.9924
     0.9801   0.9782   0.9770   0.9768   0.9577   0.9384   0.9335   0.9319
     0.9316   0.9299   0.9275   0.9258   0.6996   0.6353   0.6295   0.6168
     0.3209   0.3123   0.2935   0.2911   0.0028   0.0021   0.0018   0.0018
     0.0017   0.0016   0.0004   0.0003   0.0003   0.0003   0.0000   0.0000
     0.0000   0.0000   0.0000   0.0000   0.0000   0.0000   0.0000   0.0000
     0.0000   0.0000   0.0000   0.0000   0.0000   0.0000   0.0000   0.0000
     0.0000   0.0000   0.0000   0.0000   0.0000   0.0000   0.0000   0.0000
     0.0000   0.0000   0.0000   0.0000   0.0000   0.0000   0.0000   0.0000
     0.0000   0.0000   0.0000   0.0000   0.0000   0.0000   0.0000   0.0000
     0.0000   0.0000   0.0000   0.0000   0.0000   0.0000   0.0000   0.0000
     0.0000   0.0000   0.0000   0.0000   0.0000   0.0000   0.0000   0.0000
     0.0000   0.0000   0.0000   0.0000   0.0000   0.0000   0.0000   0.0000

          k = 0.2500 0.4330 0.0000 (100652 PWs)   bands (ev):

   -71.1988 -71.1924 -71.1921 -71.1809 -71.1805 -71.1795 -71.1793 -71.1791
   -71.1789 -71.1759 -71.1758 -71.1741 -71.1739 -71.1720 -71.1718 -71.1717
   -71.1715 -71.1713 -71.1712 -71.1711 -71.1710 -71.1707 -71.1705 -71.1688
   -71.1676 -71.1674 -71.1499 -71.1497 -71.1494 -71.1492 -71.1348 -71.1347
   -71.1343 -71.1341 -71.1333 -71.1332 -70.0716 -70.0715 -70.0189 -70.0188
   -70.0182 -70.0181 -70.0106 -70.0105 -70.0101 -70.0100 -70.0098 -70.0097
   -70.0060 -70.0057 -70.0056 -70.0012 -70.0003 -69.9988 -69.9987 -69.9984
   -69.9983 -69.9983 -69.9982 -69.9979 -69.9964 -69.9962 -69.9960 -69.9959
   -69.9843 -69.9796 -69.9789 -69.9747 -69.9683 -69.9682 -69.9247 -69.8930
   -37.3421 -37.3266 -37.3259 -37.3122 -37.3118 -37.3117 -37.3112 -37.3112
   -37.3104 -37.3102 -37.3093 -37.3083 -37.3082 -37.3070 -37.3060 -37.3050
   -37.3048 -37.3043 -37.3042 -37.3028 -37.3026 -37.3000 -37.2993 -37.2991
   -37.2964 -37.2959 -37.2830 -37.2821 -37.2787 -37.2781 -37.2668 -37.2659
   -37.2619 -37.2614 -37.2550 -37.2519 -37.2377 -37.2345 -37.2341 -37.2295
   -37.2255 -37.2245 -37.2233 -37.2231 -37.2228 -37.2227 -37.2215 -37.2212
   -37.2182 -37.2179 -37.2167 -37.2165 -37.2158 -37.2157 -37.2150 -37.2149
   -37.2136 -37.2133 -37.2131 -37.2128 -37.2111 -37.2106 -37.2101 -37.2100
   -37.2094 -37.2086 -37.2081 -37.2077 -37.2057 -37.2048 -37.2041 -37.2039
   -37.2029 -37.2025 -37.2025 -37.2013 -37.2013 -37.2009 -37.2006 -37.1992
   -37.1991 -37.1986 -37.1968 -37.1961 -37.1945 -37.1939 -37.1937 -37.1935
   -37.1897 -37.1891 -37.1887 -37.1885 -37.1826 -37.1821 -37.1803 -37.1798
   -37.1798 -37.1794 -37.1783 -37.1778 -37.1777 -37.1769 -37.1692 -37.1684
   -37.1591 -37.1587 -37.1586 -37.1578 -36.3315 -36.3310 -36.3011 -36.3006
   -36.2992 -36.2989 -36.2988 -36.2984 -36.2977 -36.2972 -36.2784 -36.2723
   -36.2392 -36.2389 -36.2197 -36.2194 -36.2169 -36.2164 -36.2112 -36.2107
   -36.2106 -36.2104 -36.2102 -36.2101 -36.2083 -36.2081 -36.2079 -36.2077
   -36.2075 -36.1999 -36.1992 -36.1939 -36.1936 -36.1784 -36.1675 -36.1079
   -36.1076 -36.1076 -36.0958 -36.0926 -36.0735 -36.0713 -36.0706 -36.0704
   -36.0655 -36.0653 -36.0603 -36.0599 -36.0596 -36.0592 -36.0592 -36.0588
   -36.0559 -36.0556 -36.0555 -36.0552 -36.0547 -36.0546 -36.0516 -36.0508
   -36.0469 -36.0376 -36.0368 -36.0356 -36.0352 -36.0337 -36.0321 -36.0319
   -36.0279 -36.0266 -36.0262 -36.0262 -36.0259 -36.0257 -36.0253 -36.0246
   -36.0240 -36.0231 -36.0227 -36.0218 -36.0192 -36.0186 -36.0179 -36.0156
   -36.0149 -36.0146 -36.0143 -36.0137 -36.0129 -36.0117 -36.0114 -36.0112
   -36.0109 -36.0105 -36.0103 -36.0098 -36.0086 -36.0082 -35.9905 -35.9899
   -35.9819 -35.9788 -35.9678 -35.9673 -35.9669 -35.9564 -35.9422 -35.9011
     3.4945   3.7633   3.8116   4.4374   4.5191   4.5589   4.6151   4.7182
     4.7750   4.7793   4.7820   4.9569   5.0573   5.0793   5.2182   5.2355
     5.2960   5.3710   5.3741   5.4002   5.4018   5.5330   5.5748   5.5881
     5.5892   5.5950   5.6032   5.6400   5.6707   5.6762   5.8844   5.8852
     5.8863   5.8944   6.0515   6.0556   8.6273   9.7640   9.8018   9.9367
     9.9420   9.9499  10.0595  10.1238  10.1488  10.1520  10.1537  10.1787
    10.1897  10.3098  10.3465  10.3898  10.5023  10.5058  10.5125  10.5223
    10.5258  10.5277  10.5278  10.5544  10.5905  10.6325  10.6648  10.6662
    10.7830  10.7843  10.7847  10.9106  10.9125  11.0854  11.1983  11.2128
    11.2728  11.3035  11.3393  11.3437  11.3478  11.3507  11.4991  11.5841
    11.6129  11.6415  11.7171  11.7332  11.7564  11.7650  11.7663  11.7966
    11.8001  11.8057  11.8334  11.8476  11.8845  11.9666  11.9801  12.0140
    12.0183  12.0213  12.0218  12.1689  12.1698  12.1839  12.2247  12.2342
    12.2453  12.2461  12.2548  12.3390  12.3395  12.3399  12.3416  12.3638
    12.4083  12.4295  12.4382  12.4446  12.4648  12.5123  12.5152  12.5233
    12.5343  12.5420  12.5436  12.5616  12.5625  12.5669  12.5687  12.6323
    12.6379  12.7000  12.7033  12.7125  12.7157  12.8268  12.8393  12.8622
    13.0130  13.0167  13.0198  13.0394  13.0513  13.1025  13.1812  13.4572
    13.4634  13.4647  13.4750  13.5709  13.5943  13.6155  13.6311  13.6417
    13.6512  13.6581  13.6625  13.6763  13.7046  13.7106  13.7253  13.7476
    13.7525  13.7566  13.7579  13.7958  13.7959  13.8113  13.8230  13.8235
    13.8291  13.8403  13.8403  13.8730  13.8900  13.8905  13.8910  13.9076
    13.9165  13.9166  13.9179  13.9351  13.9600  13.9621  13.9647  13.9686
    13.9696  13.9712  13.9956  14.0082  14.0197  14.0320  14.0354  14.0448
    14.0540  14.0644  14.0665  14.0677  14.0806  14.0828  14.1048  14.1122
    14.1174  14.1348  14.1604  14.1634  14.1674  14.1739  14.1771  14.1795
    14.1850  14.1983  14.2307  14.2429  14.2481  14.2509  14.2517  14.2570
    14.2652  14.2714  14.2741  14.2813  14.2954  14.3532  14.3639  14.3662
    14.5446  14.6253  14.6907  14.7072  14.7274  14.7401  14.7432  14.7445
    14.7493  14.7882  14.8136  14.8331  14.8350  14.8516  14.8564  14.8660
    14.8844  14.8986  14.9044  14.9073  14.9170  14.9192  14.9193  14.9517
    14.9531  14.9862  14.9986  15.0060  15.0162  15.0188  15.0221  15.0291
    15.0307  15.0342  15.0607  15.0753  15.0792  15.0793  15.0813  15.0849
    15.1276  15.1368  15.1698  15.1750  15.1755  15.1779  15.1907  15.1914
    15.1936  15.1986  15.1999  15.2038  15.2066  15.2083  15.2720  15.2797
    15.2821  15.3076  15.3113  15.3127  15.3159  15.3164  15.3180  15.3182
    15.3300  15.3415  15.3503  15.3699  15.3701  15.3800  15.3835  15.3838
    15.3870  15.3882  15.3925  15.4111  15.4248  15.4390  15.4405  15.4488
    15.4555  15.4561  15.4579  15.4636  15.5475  15.5523  15.5579  15.5585
    15.6004  15.6166  15.6242  15.6272  15.6272  15.6597  15.6681  15.6720
    15.6938  15.6973  15.7014  15.7069  15.7100  15.7137  15.7524  15.7586
    15.7594  15.7634  15.7702  15.7773  15.7804  15.7879  15.8076  15.8257
    15.8291  15.8299  15.8434  15.8603  15.8661  15.9163  15.9530  15.9577
    15.9762  15.9818  15.9836  15.9847  15.9894  15.9898  16.0016  16.0066
    16.0407  16.0496  16.0674  16.0750  16.1025  16.1037  16.1082  16.1113
    16.1157  16.1391  16.1441  16.1519  16.1573  16.1650  16.1658  16.1685
    16.2025  16.2049  16.2078  16.2094  16.2368  16.2427  16.2593  16.2689
    16.2719  16.2749  16.2774  16.2847  16.2870  16.2912  16.3427  16.3539
    16.3570  16.3765  16.3812  16.5068  16.5187  16.5187  16.5194  16.5228
    16.5267  16.5394  16.5452  16.5473  16.5607  16.5622  16.5625  16.5632
    16.5739  16.5743  16.5753  16.6006  16.6081  16.6142  16.6154  16.6166
    16.6821  16.7039  16.7090  16.7327  16.7330  16.7540  16.7556  16.7618
    16.7636  16.7637  16.7641  16.7983  16.8062  16.8102  16.8136  16.8252
    16.8684  16.8690  16.8718  16.8720  16.9215  16.9257  16.9535  16.9579
    17.2791  17.6037  17.6799  17.7240  17.8040  17.8112  17.8336  17.8373
    17.9065  17.9308  17.9401  17.9439  17.9460  17.9531  17.9788  18.0043
    18.0220  18.0357  18.0378  18.0437  18.0973  18.1089  18.2161  18.2332
    18.4728  18.4782  18.5168  18.5365  18.5469  18.5485  18.5654  18.5797
    18.6948  18.8036  18.8189  18.8248  18.8276  18.8621  19.0962  19.1159
    19.1451  19.1481  19.2279  19.2326  19.2504  19.2621  19.2630  19.2634
    19.2637  19.3636  19.3735  19.4002  19.4590  19.4645  19.4655  19.4750
    19.4783  19.4792  19.4799  19.7268  19.7960  19.8057  19.8060  19.8186
    19.8901  19.9094  19.9162  20.2138  20.2672  20.4294  20.4383  20.6280
    20.7350  20.9099  20.9493  20.9893  21.0001  21.0109  21.0254  21.0424

     occupation numbers 
     1.0000   1.0000   1.0000   1.0000   1.0000   1.0000   1.0000   1.0000
     1.0000   1.0000   1.0000   1.0000   1.0000   1.0000   1.0000   1.0000
     1.0000   1.0000   1.0000   1.0000   1.0000   1.0000   1.0000   1.0000
     1.0000   1.0000   1.0000   1.0000   1.0000   1.0000   1.0000   1.0000
     1.0000   1.0000   1.0000   1.0000   1.0000   1.0000   1.0000   1.0000
     1.0000   1.0000   1.0000   1.0000   1.0000   1.0000   1.0000   1.0000
     1.0000   1.0000   1.0000   1.0000   1.0000   1.0000   1.0000   1.0000
     1.0000   1.0000   1.0000   1.0000   1.0000   1.0000   1.0000   1.0000
     1.0000   1.0000   1.0000   1.0000   1.0000   1.0000   1.0000   1.0000
     1.0000   1.0000   1.0000   1.0000   1.0000   1.0000   1.0000   1.0000
     1.0000   1.0000   1.0000   1.0000   1.0000   1.0000   1.0000   1.0000
     1.0000   1.0000   1.0000   1.0000   1.0000   1.0000   1.0000   1.0000
     1.0000   1.0000   1.0000   1.0000   1.0000   1.0000   1.0000   1.0000
     1.0000   1.0000   1.0000   1.0000   1.0000   1.0000   1.0000   1.0000
     1.0000   1.0000   1.0000   1.0000   1.0000   1.0000   1.0000   1.0000
     1.0000   1.0000   1.0000   1.0000   1.0000   1.0000   1.0000   1.0000
     1.0000   1.0000   1.0000   1.0000   1.0000   1.0000   1.0000   1.0000
     1.0000   1.0000   1.0000   1.0000   1.0000   1.0000   1.0000   1.0000
     1.0000   1.0000   1.0000   1.0000   1.0000   1.0000   1.0000   1.0000
     1.0000   1.0000   1.0000   1.0000   1.0000   1.0000   1.0000   1.0000
     1.0000   1.0000   1.0000   1.0000   1.0000   1.0000   1.0000   1.0000
     1.0000   1.0000   1.0000   1.0000   1.0000   1.0000   1.0000   1.0000
     1.0000   1.0000   1.0000   1.0000   1.0000   1.0000   1.0000   1.0000
     1.0000   1.0000   1.0000   1.0000   1.0000   1.0000   1.0000   1.0000
     1.0000   1.0000   1.0000   1.0000   1.0000   1.0000   1.0000   1.0000
     1.0000   1.0000   1.0000   1.0000   1.0000   1.0000   1.0000   1.0000
     1.0000   1.0000   1.0000   1.0000   1.0000   1.0000   1.0000   1.0000
     1.0000   1.0000   1.0000   1.0000   1.0000   1.0000   1.0000   1.0000
     1.0000   1.0000   1.0000   1.0000   1.0000   1.0000   1.0000   1.0000
     1.0000   1.0000   1.0000   1.0000   1.0000   1.0000   1.0000   1.0000
     1.0000   1.0000   1.0000   1.0000   1.0000   1.0000   1.0000   1.0000
     1.0000   1.0000   1.0000   1.0000   1.0000   1.0000   1.0000   1.0000
     1.0000   1.0000   1.0000   1.0000   1.0000   1.0000   1.0000   1.0000
     1.0000   1.0000   1.0000   1.0000   1.0000   1.0000   1.0000   1.0000
     1.0000   1.0000   1.0000   1.0000   1.0000   1.0000   1.0000   1.0000
     1.0000   1.0000   1.0000   1.0000   1.0000   1.0000   1.0000   1.0000
     1.0000   1.0000   1.0000   1.0000   1.0000   1.0000   1.0000   1.0000
     1.0000   1.0000   1.0000   1.0000   1.0000   1.0000   1.0000   1.0000
     1.0000   1.0000   1.0000   1.0000   1.0000   1.0000   1.0000   1.0000
     1.0000   1.0000   1.0000   1.0000   1.0000   1.0000   1.0000   1.0000
     1.0000   1.0000   1.0000   1.0000   1.0000   1.0000   1.0000   1.0000
     1.0000   1.0000   1.0000   1.0000   1.0000   1.0000   1.0000   1.0000
     1.0000   1.0000   1.0000   1.0000   1.0000   1.0000   1.0000   1.0000
     1.0000   1.0000   1.0000   1.0000   1.0000   1.0000   1.0000   1.0000
     1.0000   1.0000   1.0000   1.0000   1.0000   1.0000   1.0000   1.0000
     1.0000   1.0000   1.0000   1.0000   1.0000   1.0000   1.0000   1.0000
     1.0000   1.0000   1.0000   1.0000   1.0000   1.0000   1.0000   1.0000
     1.0000   1.0000   1.0000   1.0000   1.0000   1.0000   1.0000   1.0000
     1.0000   1.0000   1.0000   1.0000   1.0000   1.0000   1.0000   1.0000
     1.0000   1.0000   1.0000   1.0000   1.0000   1.0000   1.0000   1.0000
     1.0000   1.0000   1.0000   1.0000   1.0000   1.0000   1.0000   1.0000
     1.0000   1.0000   1.0000   1.0000   1.0000   1.0000   1.0000   1.0000
     1.0000   1.0000   1.0000   1.0000   1.0000   1.0000   1.0000   1.0000
     1.0000   1.0000   1.0000   1.0000   1.0000   1.0000   1.0000   1.0000
     1.0000   1.0000   1.0000   1.0000   1.0000   1.0000   1.0000   1.0000
     1.0000   1.0000   1.0000   1.0000   1.0000   1.0000   1.0000   1.0000
     1.0000   1.0000   1.0000   1.0000   1.0000   1.0000   1.0000   1.0000
     1.0000   1.0000   1.0000   1.0000   1.0000   1.0000   1.0000   1.0000
     1.0000   1.0000   1.0000   1.0000   1.0000   1.0000   1.0000   1.0000
     1.0000   1.0000   1.0000   1.0000   1.0000   1.0000   1.0000   1.0000
     1.0000   1.0000   1.0000   1.0000   1.0000   1.0000   1.0000   1.0000
     1.0000   1.0000   1.0000   1.0000   1.0000   1.0000   1.0000   1.0000
     1.0000   1.0000   1.0000   1.0000   1.0000   1.0000   1.0000   1.0000
     1.0000   1.0000   1.0000   1.0000   1.0000   1.0000   1.0000   1.0000
     1.0000   1.0000   1.0000   1.0000   1.0000   1.0000   1.0000   1.0000
     1.0000   1.0000   1.0000   1.0000   1.0000   1.0000   1.0000   1.0000
     1.0000   1.0000   1.0000   1.0000   1.0000   1.0000   1.0000   1.0000
     1.0000   1.0000   1.0000   1.0000   1.0000   1.0000   1.0000   1.0000
     1.0000   1.0000   1.0000   1.0000   1.0000   1.0000   1.0000   1.0000
     1.0000   1.0000   1.0000   1.0000   1.0000   1.0000   1.0000   1.0000
     1.0000   1.0000   1.0000   1.0000   1.0000   1.0000   1.0000   1.0000
     1.0000   1.0000   1.0000   1.0000   1.0000   1.0000   1.0000   1.0000
     1.0000   1.0000   1.0000   1.0000   1.0000   1.0000   1.0000   1.0000
     1.0000   1.0000   1.0000   1.0000   1.0000   1.0000   1.0000   1.0000
     1.0000   1.0000   1.0000   1.0000   1.0000   1.0000   1.0000   1.0000
     1.0000   1.0000   1.0000   1.0000   1.0000   1.0000   1.0000   1.0000
     1.0000   1.0000   1.0000   1.0000   1.0000   1.0000   1.0000   1.0000
     1.0000   1.0000   1.0000   1.0000   1.0000   1.0000   1.0000   1.0000
     1.0000   1.0000   1.0000   1.0000   1.0000   1.0000   1.0000   1.0000
     1.0000   1.0000   1.0000   1.0000   1.0000   1.0000   1.0000   1.0000
     1.0000   1.0000   1.0000   1.0000   1.0000   1.0000   1.0000   1.0000
     1.0000   1.0000   1.0000   1.0000   1.0000   1.0000   1.0000   1.0000
     1.0000   1.0000   1.0000   1.0000   1.0000   1.0000   1.0000   1.0000
     1.0000   1.0000   1.0000   1.0000   1.0000   1.0000   1.0000   1.0000
     1.0000   1.0000   1.0000   0.9999   0.9998   0.9998   0.9998   0.9998
     0.9998   0.9998   0.9997   0.9997   0.9996   0.9996   0.9996   0.9996
     0.9995   0.9995   0.9995   0.9993   0.9992   0.9991   0.9990   0.9990
     0.9971   0.9959   0.9955   0.9936   0.9936   0.9914   0.9912   0.9904
     0.9901   0.9901   0.9901   0.9843   0.9826   0.9817   0.9808   0.9778
     0.9630   0.9628   0.9615   0.9615   0.9346   0.9317   0.9106   0.9069
     0.3639   0.0209   0.0075   0.0039   0.0010   0.0009   0.0006   0.0006
     0.0002   0.0001   0.0001   0.0001   0.0001   0.0001   0.0000   0.0000
     0.0000   0.0000   0.0000   0.0000   0.0000   0.0000   0.0000   0.0000
     0.0000   0.0000   0.0000   0.0000   0.0000   0.0000   0.0000   0.0000
     0.0000   0.0000   0.0000   0.0000   0.0000   0.0000   0.0000   0.0000
     0.0000   0.0000   0.0000   0.0000   0.0000   0.0000   0.0000   0.0000
     0.0000   0.0000   0.0000   0.0000   0.0000   0.0000   0.0000   0.0000
     0.0000   0.0000   0.0000   0.0000   0.0000   0.0000   0.0000   0.0000
     0.0000   0.0000   0.0000   0.0000   0.0000   0.0000   0.0000   0.0000
     0.0000   0.0000   0.0000   0.0000   0.0000   0.0000   0.0000   0.0000

          k = 0.2500 0.4330 0.2850 (100562 PWs)   bands (ev):

   -71.1988 -71.1924 -71.1921 -71.1809 -71.1805 -71.1795 -71.1793 -71.1791
   -71.1789 -71.1759 -71.1758 -71.1741 -71.1739 -71.1720 -71.1718 -71.1717
   -71.1714 -71.1713 -71.1712 -71.1711 -71.1710 -71.1707 -71.1705 -71.1688
   -71.1676 -71.1674 -71.1499 -71.1497 -71.1494 -71.1492 -71.1348 -71.1347
   -71.1343 -71.1341 -71.1333 -71.1332 -70.0716 -70.0715 -70.0189 -70.0188
   -70.0182 -70.0181 -70.0106 -70.0105 -70.0101 -70.0100 -70.0098 -70.0097
   -70.0060 -70.0057 -70.0056 -70.0012 -70.0003 -69.9988 -69.9987 -69.9984
   -69.9983 -69.9983 -69.9982 -69.9979 -69.9964 -69.9962 -69.9960 -69.9959
   -69.9843 -69.9796 -69.9789 -69.9747 -69.9683 -69.9682 -69.9247 -69.8930
   -37.3421 -37.3266 -37.3260 -37.3131 -37.3128 -37.3117 -37.3116 -37.3111
   -37.3100 -37.3092 -37.3090 -37.3088 -37.3077 -37.3059 -37.3058 -37.3056
   -37.3050 -37.3046 -37.3044 -37.3017 -37.3014 -37.3004 -37.2996 -37.2995
   -37.2968 -37.2963 -37.2828 -37.2820 -37.2787 -37.2782 -37.2667 -37.2658
   -37.2620 -37.2615 -37.2549 -37.2520 -37.2377 -37.2345 -37.2341 -37.2295
   -37.2255 -37.2245 -37.2233 -37.2231 -37.2228 -37.2226 -37.2214 -37.2212
   -37.2182 -37.2179 -37.2168 -37.2164 -37.2158 -37.2156 -37.2151 -37.2148
   -37.2135 -37.2133 -37.2131 -37.2127 -37.2111 -37.2105 -37.2101 -37.2100
   -37.2095 -37.2085 -37.2082 -37.2077 -37.2057 -37.2048 -37.2041 -37.2039
   -37.2029 -37.2025 -37.2025 -37.2013 -37.2013 -37.2009 -37.2006 -37.1992
   -37.1991 -37.1986 -37.1967 -37.1961 -37.1945 -37.1940 -37.1936 -37.1935
   -37.1897 -37.1891 -37.1887 -37.1885 -37.1826 -37.1821 -37.1803 -37.1798
   -37.1798 -37.1793 -37.1783 -37.1778 -37.1777 -37.1769 -37.1692 -37.1684
   -37.1591 -37.1586 -37.1586 -37.1577 -36.3315 -36.3310 -36.3011 -36.3006
   -36.2992 -36.2989 -36.2988 -36.2984 -36.2977 -36.2972 -36.2783 -36.2723
   -36.2392 -36.2389 -36.2197 -36.2194 -36.2169 -36.2164 -36.2112 -36.2107
   -36.2106 -36.2104 -36.2102 -36.2101 -36.2082 -36.2081 -36.2078 -36.2077
   -36.2075 -36.1998 -36.1991 -36.1939 -36.1936 -36.1784 -36.1675 -36.1079
   -36.1076 -36.1076 -36.0958 -36.0926 -36.0735 -36.0712 -36.0707 -36.0703
   -36.0655 -36.0653 -36.0603 -36.0599 -36.0596 -36.0592 -36.0592 -36.0588
   -36.0559 -36.0556 -36.0555 -36.0551 -36.0547 -36.0546 -36.0516 -36.0508
   -36.0468 -36.0376 -36.0369 -36.0356 -36.0352 -36.0336 -36.0323 -36.0320
   -36.0278 -36.0265 -36.0262 -36.0260 -36.0259 -36.0256 -36.0253 -36.0246
   -36.0241 -36.0232 -36.0228 -36.0210 -36.0192 -36.0186 -36.0182 -36.0159
   -36.0155 -36.0149 -36.0137 -36.0134 -36.0125 -36.0114 -36.0112 -36.0111
   -36.0108 -36.0105 -36.0102 -36.0101 -36.0088 -36.0084 -35.9905 -35.9899
   -35.9820 -35.9787 -35.9678 -35.9673 -35.9669 -35.9564 -35.9422 -35.9011
     3.5649   3.8287   3.8796   4.1120   4.3449   4.3908   4.5278   4.6721
     4.9185   4.9780   5.0133   5.0850   5.1011   5.1235   5.1539   5.1834
     5.3298   5.3529   5.4051   5.4224   5.4391   5.4434   5.4823   5.5668
     5.6181   5.6267   5.6505   5.6572   5.6734   5.7105   5.7154   5.7747
     5.9055   6.0267   6.0307   6.1701   8.6201   9.7092   9.8270   9.8630
     9.9235   9.9395   9.9663   9.9901  10.0573  10.0808  10.0933  10.1552
    10.1812  10.1848  10.1923  10.2152  10.2383  10.3103  10.3503  10.4221
    10.4318  10.5019  10.5375  10.5628  10.6057  10.6200  10.7079  10.8263
    10.8515  11.0403  11.1096  11.1325  11.1499  11.2282  11.2338  11.2760
    11.3342  11.4197  11.4523  11.4605  11.4799  11.5267  11.5457  11.6046
    11.6815  11.7078  11.7446  11.7793  11.7990  11.8107  11.8356  11.8545
    11.8628  11.8671  11.8857  11.9277  11.9446  11.9815  12.0323  12.0372
    12.0776  12.0926  12.1149  12.1178  12.1228  12.1314  12.1436  12.1453
    12.1566  12.1883  12.2424  12.2692  12.2835  12.2975  12.3214  12.3413
    12.3460  12.3900  12.4098  12.4245  12.4329  12.4642  12.4652  12.4736
    12.4842  12.5116  12.5189  12.5511  12.5552  12.6244  12.6351  12.6543
    12.6650  12.6707  12.7140  12.7456  12.7793  12.8442  12.8484  12.8558
    12.9118  12.9358  12.9581  12.9671  12.9975  13.0440  13.1140  13.1700
    13.1781  13.5661  13.5971  13.6202  13.6287  13.6342  13.6420  13.6479
    13.6593  13.6664  13.6718  13.6800  13.6935  13.7007  13.7234  13.7364
    13.7379  13.7539  13.7676  13.7702  13.7761  13.8054  13.8186  13.8288
    13.8485  13.8553  13.8660  13.8686  13.8769  13.8856  13.8885  13.8901
    13.8998  13.9056  13.9243  13.9253  13.9336  13.9477  13.9541  13.9550
    13.9593  13.9605  13.9647  14.0105  14.0225  14.0294  14.0415  14.0465
    14.0530  14.0711  14.0726  14.0764  14.0826  14.1004  14.1057  14.1072
    14.1089  14.1129  14.1176  14.1386  14.1388  14.1594  14.1893  14.2050
    14.2079  14.2107  14.2188  14.2257  14.2273  14.2338  14.2376  14.2384
    14.2462  14.2764  14.3095  14.3213  14.3773  14.3858  14.4058  14.4065
    14.4799  14.5797  14.5914  14.5970  14.6673  14.7726  14.7798  14.8089
    14.8380  14.8408  14.8772  14.8800  14.8899  14.8908  14.9009  14.9015
    14.9165  14.9263  14.9431  14.9518  14.9528  14.9669  14.9814  14.9857
    14.9902  14.9956  15.0030  15.0069  15.0109  15.0227  15.0288  15.0297
    15.0336  15.0547  15.0631  15.0655  15.0661  15.0880  15.0930  15.0948
    15.1148  15.1203  15.1211  15.1241  15.1329  15.1402  15.1448  15.1616
    15.1691  15.1734  15.1870  15.2063  15.2103  15.2218  15.2367  15.2419
    15.2474  15.2557  15.2683  15.2724  15.2795  15.2809  15.2913  15.3024
    15.3090  15.3120  15.3308  15.3470  15.3823  15.3837  15.4007  15.4045
    15.4125  15.4153  15.4167  15.4186  15.4324  15.4790  15.4797  15.4874
    15.4930  15.5056  15.5212  15.5296  15.5374  15.5464  15.5588  15.5631
    15.5935  15.6023  15.6025  15.6139  15.6169  15.6295  15.6331  15.6573
    15.6680  15.6875  15.7046  15.7168  15.7307  15.7336  15.7367  15.7447
    15.7522  15.7763  15.7831  15.8005  15.8040  15.8195  15.8404  15.8436
    15.8577  15.8601  15.8912  15.8930  15.8997  15.9041  15.9073  15.9190
    15.9286  15.9315  15.9410  15.9720  15.9772  15.9859  15.9918  16.0251
    16.0269  16.0388  16.0494  16.0561  16.0644  16.0674  16.0750  16.0772
    16.0782  16.1263  16.1381  16.1443  16.1460  16.1531  16.1534  16.1573
    16.1594  16.1890  16.1944  16.2033  16.2068  16.2105  16.2262  16.2521
    16.2581  16.2756  16.2815  16.2921  16.2959  16.3067  16.3156  16.3268
    16.3694  16.3917  16.4307  16.4333  16.4457  16.4472  16.5143  16.5206
    16.5284  16.5485  16.5599  16.5633  16.5649  16.5682  16.5716  16.5732
    16.5783  16.5784  16.5957  16.5994  16.6002  16.6109  16.6654  16.6701
    16.6751  16.6780  16.7366  16.7557  16.7626  16.7720  16.7745  16.7759
    16.7896  16.7954  16.8031  16.8206  16.8219  16.8231  16.8299  16.8736
    16.8890  16.8949  16.9035  16.9083  16.9505  16.9548  17.0253  17.1276
    17.2148  17.4650  17.6223  17.6953  17.6985  17.7321  17.7462  17.7840
    17.7907  17.9037  17.9040  17.9157  17.9509  17.9808  17.9890  18.0082
    18.0466  18.0511  18.0692  18.0891  18.0904  18.3077  18.3860  18.4042
    18.4151  18.5470  18.5647  18.5787  18.6093  18.6177  18.6415  18.6486
    18.6926  18.6983  18.7881  18.8027  18.8252  18.8962  18.9104  18.9111
    19.0123  19.1067  19.1536  19.1704  19.1705  19.2353  19.2534  19.2576
    19.2690  19.3455  19.3581  19.3790  19.3791  19.4163  19.4232  19.4686
    19.4737  19.5587  19.6075  19.6379  19.6983  19.7026  19.7557  19.7843
    19.8219  19.8319  19.8578  20.0354  20.0516  20.2422  20.2483  20.2658
    20.4495  20.7592  20.8373  20.9079  21.0073  21.1032  21.4206  21.4233

     occupation numbers 
     1.0000   1.0000   1.0000   1.0000   1.0000   1.0000   1.0000   1.0000
     1.0000   1.0000   1.0000   1.0000   1.0000   1.0000   1.0000   1.0000
     1.0000   1.0000   1.0000   1.0000   1.0000   1.0000   1.0000   1.0000
     1.0000   1.0000   1.0000   1.0000   1.0000   1.0000   1.0000   1.0000
     1.0000   1.0000   1.0000   1.0000   1.0000   1.0000   1.0000   1.0000
     1.0000   1.0000   1.0000   1.0000   1.0000   1.0000   1.0000   1.0000
     1.0000   1.0000   1.0000   1.0000   1.0000   1.0000   1.0000   1.0000
     1.0000   1.0000   1.0000   1.0000   1.0000   1.0000   1.0000   1.0000
     1.0000   1.0000   1.0000   1.0000   1.0000   1.0000   1.0000   1.0000
     1.0000   1.0000   1.0000   1.0000   1.0000   1.0000   1.0000   1.0000
     1.0000   1.0000   1.0000   1.0000   1.0000   1.0000   1.0000   1.0000
     1.0000   1.0000   1.0000   1.0000   1.0000   1.0000   1.0000   1.0000
     1.0000   1.0000   1.0000   1.0000   1.0000   1.0000   1.0000   1.0000
     1.0000   1.0000   1.0000   1.0000   1.0000   1.0000   1.0000   1.0000
     1.0000   1.0000   1.0000   1.0000   1.0000   1.0000   1.0000   1.0000
     1.0000   1.0000   1.0000   1.0000   1.0000   1.0000   1.0000   1.0000
     1.0000   1.0000   1.0000   1.0000   1.0000   1.0000   1.0000   1.0000
     1.0000   1.0000   1.0000   1.0000   1.0000   1.0000   1.0000   1.0000
     1.0000   1.0000   1.0000   1.0000   1.0000   1.0000   1.0000   1.0000
     1.0000   1.0000   1.0000   1.0000   1.0000   1.0000   1.0000   1.0000
     1.0000   1.0000   1.0000   1.0000   1.0000   1.0000   1.0000   1.0000
     1.0000   1.0000   1.0000   1.0000   1.0000   1.0000   1.0000   1.0000
     1.0000   1.0000   1.0000   1.0000   1.0000   1.0000   1.0000   1.0000
     1.0000   1.0000   1.0000   1.0000   1.0000   1.0000   1.0000   1.0000
     1.0000   1.0000   1.0000   1.0000   1.0000   1.0000   1.0000   1.0000
     1.0000   1.0000   1.0000   1.0000   1.0000   1.0000   1.0000   1.0000
     1.0000   1.0000   1.0000   1.0000   1.0000   1.0000   1.0000   1.0000
     1.0000   1.0000   1.0000   1.0000   1.0000   1.0000   1.0000   1.0000
     1.0000   1.0000   1.0000   1.0000   1.0000   1.0000   1.0000   1.0000
     1.0000   1.0000   1.0000   1.0000   1.0000   1.0000   1.0000   1.0000
     1.0000   1.0000   1.0000   1.0000   1.0000   1.0000   1.0000   1.0000
     1.0000   1.0000   1.0000   1.0000   1.0000   1.0000   1.0000   1.0000
     1.0000   1.0000   1.0000   1.0000   1.0000   1.0000   1.0000   1.0000
     1.0000   1.0000   1.0000   1.0000   1.0000   1.0000   1.0000   1.0000
     1.0000   1.0000   1.0000   1.0000   1.0000   1.0000   1.0000   1.0000
     1.0000   1.0000   1.0000   1.0000   1.0000   1.0000   1.0000   1.0000
     1.0000   1.0000   1.0000   1.0000   1.0000   1.0000   1.0000   1.0000
     1.0000   1.0000   1.0000   1.0000   1.0000   1.0000   1.0000   1.0000
     1.0000   1.0000   1.0000   1.0000   1.0000   1.0000   1.0000   1.0000
     1.0000   1.0000   1.0000   1.0000   1.0000   1.0000   1.0000   1.0000
     1.0000   1.0000   1.0000   1.0000   1.0000   1.0000   1.0000   1.0000
     1.0000   1.0000   1.0000   1.0000   1.0000   1.0000   1.0000   1.0000
     1.0000   1.0000   1.0000   1.0000   1.0000   1.0000   1.0000   1.0000
     1.0000   1.0000   1.0000   1.0000   1.0000   1.0000   1.0000   1.0000
     1.0000   1.0000   1.0000   1.0000   1.0000   1.0000   1.0000   1.0000
     1.0000   1.0000   1.0000   1.0000   1.0000   1.0000   1.0000   1.0000
     1.0000   1.0000   1.0000   1.0000   1.0000   1.0000   1.0000   1.0000
     1.0000   1.0000   1.0000   1.0000   1.0000   1.0000   1.0000   1.0000
     1.0000   1.0000   1.0000   1.0000   1.0000   1.0000   1.0000   1.0000
     1.0000   1.0000   1.0000   1.0000   1.0000   1.0000   1.0000   1.0000
     1.0000   1.0000   1.0000   1.0000   1.0000   1.0000   1.0000   1.0000
     1.0000   1.0000   1.0000   1.0000   1.0000   1.0000   1.0000   1.0000
     1.0000   1.0000   1.0000   1.0000   1.0000   1.0000   1.0000   1.0000
     1.0000   1.0000   1.0000   1.0000   1.0000   1.0000   1.0000   1.0000
     1.0000   1.0000   1.0000   1.0000   1.0000   1.0000   1.0000   1.0000
     1.0000   1.0000   1.0000   1.0000   1.0000   1.0000   1.0000   1.0000
     1.0000   1.0000   1.0000   1.0000   1.0000   1.0000   1.0000   1.0000
     1.0000   1.0000   1.0000   1.0000   1.0000   1.0000   1.0000   1.0000
     1.0000   1.0000   1.0000   1.0000   1.0000   1.0000   1.0000   1.0000
     1.0000   1.0000   1.0000   1.0000   1.0000   1.0000   1.0000   1.0000
     1.0000   1.0000   1.0000   1.0000   1.0000   1.0000   1.0000   1.0000
     1.0000   1.0000   1.0000   1.0000   1.0000   1.0000   1.0000   1.0000
     1.0000   1.0000   1.0000   1.0000   1.0000   1.0000   1.0000   1.0000
     1.0000   1.0000   1.0000   1.0000   1.0000   1.0000   1.0000   1.0000
     1.0000   1.0000   1.0000   1.0000   1.0000   1.0000   1.0000   1.0000
     1.0000   1.0000   1.0000   1.0000   1.0000   1.0000   1.0000   1.0000
     1.0000   1.0000   1.0000   1.0000   1.0000   1.0000   1.0000   1.0000
     1.0000   1.0000   1.0000   1.0000   1.0000   1.0000   1.0000   1.0000
     1.0000   1.0000   1.0000   1.0000   1.0000   1.0000   1.0000   1.0000
     1.0000   1.0000   1.0000   1.0000   1.0000   1.0000   1.0000   1.0000
     1.0000   1.0000   1.0000   1.0000   1.0000   1.0000   1.0000   1.0000
     1.0000   1.0000   1.0000   1.0000   1.0000   1.0000   1.0000   1.0000
     1.0000   1.0000   1.0000   1.0000   1.0000   1.0000   1.0000   1.0000
     1.0000   1.0000   1.0000   1.0000   1.0000   1.0000   1.0000   1.0000
     1.0000   1.0000   1.0000   1.0000   1.0000   1.0000   1.0000   1.0000
     1.0000   1.0000   1.0000   1.0000   1.0000   1.0000   1.0000   1.0000
     1.0000   1.0000   1.0000   1.0000   1.0000   1.0000   1.0000   1.0000
     1.0000   1.0000   1.0000   1.0000   1.0000   1.0000   1.0000   1.0000
     1.0000   1.0000   1.0000   1.0000   1.0000   1.0000   1.0000   1.0000
     1.0000   1.0000   1.0000   1.0000   1.0000   1.0000   1.0000   1.0000
     1.0000   1.0000   1.0000   1.0000   1.0000   1.0000   1.0000   1.0000
     1.0000   1.0000   1.0000   1.0000   1.0000   1.0000   1.0000   1.0000
     1.0000   1.0000   1.0000   1.0000   1.0000   1.0000   1.0000   1.0000
     1.0000   1.0000   1.0000   1.0000   1.0000   1.0000   1.0000   1.0000
     1.0000   1.0000   1.0000   1.0000   1.0000   1.0000   0.9999   0.9998
     0.9998   0.9997   0.9997   0.9996   0.9996   0.9996   0.9996   0.9996
     0.9995   0.9995   0.9993   0.9993   0.9993   0.9991   0.9978   0.9976
     0.9974   0.9973   0.9933   0.9912   0.9903   0.9889   0.9885   0.9883
     0.9860   0.9848   0.9833   0.9791   0.9787   0.9784   0.9765   0.9608
     0.9535   0.9504   0.9457   0.9428   0.9131   0.9095   0.8342   0.6698
     0.4946   0.0945   0.0165   0.0060   0.0057   0.0034   0.0028   0.0015
     0.0013   0.0002   0.0002   0.0001   0.0001   0.0000   0.0000   0.0000
     0.0000   0.0000   0.0000   0.0000   0.0000   0.0000   0.0000   0.0000
     0.0000   0.0000   0.0000   0.0000   0.0000   0.0000   0.0000   0.0000
     0.0000   0.0000   0.0000   0.0000   0.0000   0.0000   0.0000   0.0000
     0.0000   0.0000   0.0000   0.0000   0.0000   0.0000   0.0000   0.0000
     0.0000   0.0000   0.0000   0.0000   0.0000   0.0000   0.0000   0.0000
     0.0000   0.0000   0.0000   0.0000   0.0000   0.0000   0.0000   0.0000
     0.0000   0.0000   0.0000   0.0000   0.0000   0.0000   0.0000   0.0000
     0.0000   0.0000   0.0000   0.0000   0.0000   0.0000   0.0000   0.0000

          k = 0.2500 0.4330-0.5700 (100580 PWs)   bands (ev):

   -71.1988 -71.1924 -71.1921 -71.1809 -71.1805 -71.1795 -71.1793 -71.1791
   -71.1790 -71.1759 -71.1758 -71.1741 -71.1739 -71.1720 -71.1719 -71.1717
   -71.1714 -71.1713 -71.1712 -71.1711 -71.1710 -71.1707 -71.1705 -71.1688
   -71.1676 -71.1674 -71.1499 -71.1497 -71.1494 -71.1492 -71.1348 -71.1347
   -71.1343 -71.1341 -71.1333 -71.1332 -70.0716 -70.0715 -70.0189 -70.0188
   -70.0182 -70.0181 -70.0106 -70.0105 -70.0101 -70.0100 -70.0098 -70.0097
   -70.0060 -70.0057 -70.0056 -70.0012 -70.0003 -69.9988 -69.9987 -69.9984
   -69.9983 -69.9983 -69.9982 -69.9979 -69.9964 -69.9962 -69.9960 -69.9959
   -69.9843 -69.9796 -69.9789 -69.9747 -69.9683 -69.9682 -69.9247 -69.8930
   -37.3421 -37.3266 -37.3260 -37.3136 -37.3134 -37.3120 -37.3116 -37.3111
   -37.3105 -37.3094 -37.3081 -37.3077 -37.3071 -37.3063 -37.3061 -37.3053
   -37.3052 -37.3049 -37.3037 -37.3009 -37.3006 -37.3003 -37.3001 -37.2997
   -37.2974 -37.2969 -37.2826 -37.2819 -37.2789 -37.2784 -37.2665 -37.2657
   -37.2622 -37.2616 -37.2548 -37.2522 -37.2377 -37.2345 -37.2341 -37.2295
   -37.2255 -37.2245 -37.2233 -37.2231 -37.2228 -37.2226 -37.2214 -37.2212
   -37.2182 -37.2179 -37.2168 -37.2164 -37.2158 -37.2156 -37.2151 -37.2148
   -37.2135 -37.2133 -37.2131 -37.2127 -37.2111 -37.2105 -37.2101 -37.2100
   -37.2095 -37.2084 -37.2083 -37.2076 -37.2057 -37.2048 -37.2041 -37.2039
   -37.2029 -37.2025 -37.2025 -37.2014 -37.2013 -37.2009 -37.2005 -37.1992
   -37.1991 -37.1986 -37.1967 -37.1961 -37.1944 -37.1941 -37.1935 -37.1935
   -37.1897 -37.1891 -37.1887 -37.1885 -37.1826 -37.1821 -37.1803 -37.1798
   -37.1798 -37.1793 -37.1783 -37.1778 -37.1777 -37.1769 -37.1693 -37.1684
   -37.1591 -37.1586 -37.1586 -37.1577 -36.3315 -36.3310 -36.3011 -36.3006
   -36.2993 -36.2989 -36.2988 -36.2984 -36.2977 -36.2972 -36.2783 -36.2723
   -36.2392 -36.2389 -36.2196 -36.2194 -36.2169 -36.2164 -36.2111 -36.2107
   -36.2106 -36.2104 -36.2102 -36.2102 -36.2082 -36.2081 -36.2078 -36.2077
   -36.2074 -36.1998 -36.1991 -36.1939 -36.1936 -36.1784 -36.1675 -36.1079
   -36.1076 -36.1076 -36.0959 -36.0925 -36.0735 -36.0712 -36.0708 -36.0702
   -36.0655 -36.0653 -36.0603 -36.0599 -36.0596 -36.0593 -36.0591 -36.0588
   -36.0560 -36.0556 -36.0555 -36.0551 -36.0547 -36.0546 -36.0516 -36.0508
   -36.0468 -36.0375 -36.0370 -36.0355 -36.0352 -36.0334 -36.0324 -36.0322
   -36.0277 -36.0265 -36.0262 -36.0260 -36.0259 -36.0256 -36.0253 -36.0246
   -36.0242 -36.0232 -36.0229 -36.0201 -36.0192 -36.0188 -36.0185 -36.0161
   -36.0157 -36.0150 -36.0137 -36.0133 -36.0118 -36.0112 -36.0111 -36.0109
   -36.0108 -36.0107 -36.0105 -36.0101 -36.0090 -36.0086 -35.9905 -35.9899
   -35.9820 -35.9787 -35.9678 -35.9673 -35.9669 -35.9564 -35.9422 -35.9011
     3.7423   3.8034   4.0066   4.0689   4.0778   4.0793   4.6697   4.7048
     4.8329   4.8397   5.1092   5.1556   5.2152   5.2328   5.2468   5.2483
     5.2885   5.4165   5.4362   5.4458   5.4584   5.5176   5.5438   5.5495
     5.5526   5.5545   5.5580   5.5588   5.5897   5.7200   5.7639   5.7729
     5.8416   6.0829   6.0860   6.2147   8.6128   9.6100   9.7991   9.8299
     9.8328   9.8838   9.9019   9.9930   9.9952  10.0028  10.0356  10.0487
    10.0835  10.1292  10.1840  10.1954  10.2923  10.3271  10.3553  10.3563
    10.3613  10.3666  10.3741  10.5080  10.5442  10.6499  10.6710  10.8425
    10.8481  11.1102  11.1954  11.2834  11.2886  11.3038  11.3492  11.4270
    11.4610  11.5764  11.5849  11.6617  11.6666  11.6784  11.7346  11.7367
    11.7647  11.7655  11.7678  11.7699  11.7853  11.8609  11.8762  11.9009
    11.9601  11.9647  11.9708  11.9744  11.9836  12.0329  12.0590  12.0765
    12.1153  12.1203  12.1497  12.1723  12.1785  12.1867  12.1911  12.2134
    12.2205  12.2233  12.2282  12.2305  12.2388  12.2479  12.2488  12.2705
    12.2733  12.3104  12.3153  12.3180  12.3283  12.3288  12.3309  12.3799
    12.3816  12.3997  12.4870  12.4982  12.5062  12.6053  12.6091  12.6181
    12.6231  12.7191  12.7541  12.7565  12.7588  12.7651  12.7667  12.7825
    12.8748  12.8827  12.9854  12.9916  12.9953  13.0068  13.0148  13.0155
    13.1059  13.5487  13.6286  13.6297  13.6353  13.6362  13.6383  13.6467
    13.6483  13.6517  13.6568  13.6621  13.6933  13.7109  13.7248  13.7315
    13.7633  13.7773  13.7834  13.7850  13.7980  13.8050  13.8060  13.8072
    13.8268  13.8473  13.8507  13.8639  13.8729  13.8732  13.8870  13.8971
    13.8974  13.9052  13.9130  13.9385  13.9419  13.9589  13.9647  13.9648
    13.9740  13.9755  13.9759  13.9805  13.9810  13.9923  14.0157  14.0355
    14.0522  14.0601  14.0629  14.0734  14.0832  14.0843  14.0886  14.0903
    14.1142  14.1170  14.1256  14.1277  14.1503  14.1613  14.1624  14.1640
    14.1682  14.1911  14.2156  14.2215  14.2446  14.2841  14.3036  14.3099
    14.3135  14.3137  14.3182  14.3196  14.3425  14.3439  14.4431  14.4502
    14.4578  14.4619  14.4896  14.4943  14.7571  14.7588  14.8837  14.8859
    14.8900  14.8922  14.8924  14.8962  14.9082  14.9122  14.9292  14.9435
    14.9664  14.9678  14.9730  14.9747  14.9826  14.9894  14.9899  14.9928
    15.0045  15.0073  15.0075  15.0220  15.0315  15.0407  15.0537  15.0556
    15.0633  15.0741  15.0770  15.0807  15.0820  15.0823  15.0866  15.0884
    15.0908  15.0909  15.0955  15.1056  15.1195  15.1195  15.1221  15.1226
    15.1284  15.1310  15.1520  15.1561  15.1782  15.1824  15.2135  15.2187
    15.2337  15.2341  15.2503  15.2539  15.2567  15.2610  15.2822  15.2943
    15.3463  15.3485  15.3520  15.3591  15.3817  15.3839  15.4053  15.4104
    15.4161  15.4182  15.4615  15.4671  15.4703  15.4723  15.4813  15.4936
    15.5099  15.5131  15.5132  15.5195  15.5256  15.5268  15.5580  15.5667
    15.5965  15.5979  15.6093  15.6097  15.6181  15.6238  15.6636  15.6667
    15.6683  15.6738  15.6764  15.6797  15.6911  15.6972  15.6990  15.7164
    15.7701  15.8019  15.8026  15.8058  15.8586  15.8614  15.8648  15.8728
    15.8829  15.8918  15.9030  15.9039  15.9090  15.9126  15.9152  15.9212
    15.9242  15.9446  15.9479  15.9494  15.9661  15.9776  15.9818  15.9835
    15.9923  15.9927  16.0083  16.0098  16.0120  16.0145  16.0193  16.0209
    16.0241  16.1036  16.1217  16.1279  16.1535  16.1592  16.1637  16.1648
    16.1657  16.1710  16.1748  16.1788  16.1850  16.2069  16.2083  16.2502
    16.2629  16.2669  16.2745  16.3138  16.3153  16.3160  16.3299  16.3360
    16.3371  16.3886  16.3899  16.3900  16.3962  16.4416  16.4432  16.5122
    16.5580  16.5634  16.5696  16.5706  16.5707  16.5766  16.5793  16.5805
    16.5806  16.5853  16.6064  16.6087  16.6125  16.6195  16.6617  16.6662
    16.7130  16.7177  16.7184  16.7302  16.7305  16.7381  16.7393  16.7606
    16.8107  16.8172  16.8339  16.8435  16.8718  16.8727  16.8756  16.8770
    16.9511  16.9830  17.0639  17.0663  17.0752  17.0766  17.0783  17.0845
    17.2154  17.2189  17.5460  17.5519  17.5526  17.5619  17.6744  17.6784
    17.7297  17.8581  17.8669  18.0230  18.0638  18.0729  18.0736  18.0758
    18.1090  18.1384  18.1512  18.2550  18.2581  18.2604  18.2904  18.3181
    18.3412  18.3651  18.4634  18.5896  18.6687  18.7341  18.8006  18.8167
    18.8171  18.8185  18.8733  18.8935  18.9400  18.9519  18.9949  18.9960
    19.0235  19.0266  19.0651  19.0667  19.0719  19.0776  19.1172  19.1224
    19.1260  19.1297  19.1330  19.2852  19.3206  19.3206  19.3274  19.4121
    19.4170  19.4641  19.4848  19.5706  19.5722  19.5780  19.5846  19.8066
    19.8457  19.8494  19.8499  19.9563  19.9566  20.1594  20.1722  20.2724
    20.4056  20.6308  20.8920  20.8993  20.9263  20.9999  21.5405  21.5619

     occupation numbers 
     1.0000   1.0000   1.0000   1.0000   1.0000   1.0000   1.0000   1.0000
     1.0000   1.0000   1.0000   1.0000   1.0000   1.0000   1.0000   1.0000
     1.0000   1.0000   1.0000   1.0000   1.0000   1.0000   1.0000   1.0000
     1.0000   1.0000   1.0000   1.0000   1.0000   1.0000   1.0000   1.0000
     1.0000   1.0000   1.0000   1.0000   1.0000   1.0000   1.0000   1.0000
     1.0000   1.0000   1.0000   1.0000   1.0000   1.0000   1.0000   1.0000
     1.0000   1.0000   1.0000   1.0000   1.0000   1.0000   1.0000   1.0000
     1.0000   1.0000   1.0000   1.0000   1.0000   1.0000   1.0000   1.0000
     1.0000   1.0000   1.0000   1.0000   1.0000   1.0000   1.0000   1.0000
     1.0000   1.0000   1.0000   1.0000   1.0000   1.0000   1.0000   1.0000
     1.0000   1.0000   1.0000   1.0000   1.0000   1.0000   1.0000   1.0000
     1.0000   1.0000   1.0000   1.0000   1.0000   1.0000   1.0000   1.0000
     1.0000   1.0000   1.0000   1.0000   1.0000   1.0000   1.0000   1.0000
     1.0000   1.0000   1.0000   1.0000   1.0000   1.0000   1.0000   1.0000
     1.0000   1.0000   1.0000   1.0000   1.0000   1.0000   1.0000   1.0000
     1.0000   1.0000   1.0000   1.0000   1.0000   1.0000   1.0000   1.0000
     1.0000   1.0000   1.0000   1.0000   1.0000   1.0000   1.0000   1.0000
     1.0000   1.0000   1.0000   1.0000   1.0000   1.0000   1.0000   1.0000
     1.0000   1.0000   1.0000   1.0000   1.0000   1.0000   1.0000   1.0000
     1.0000   1.0000   1.0000   1.0000   1.0000   1.0000   1.0000   1.0000
     1.0000   1.0000   1.0000   1.0000   1.0000   1.0000   1.0000   1.0000
     1.0000   1.0000   1.0000   1.0000   1.0000   1.0000   1.0000   1.0000
     1.0000   1.0000   1.0000   1.0000   1.0000   1.0000   1.0000   1.0000
     1.0000   1.0000   1.0000   1.0000   1.0000   1.0000   1.0000   1.0000
     1.0000   1.0000   1.0000   1.0000   1.0000   1.0000   1.0000   1.0000
     1.0000   1.0000   1.0000   1.0000   1.0000   1.0000   1.0000   1.0000
     1.0000   1.0000   1.0000   1.0000   1.0000   1.0000   1.0000   1.0000
     1.0000   1.0000   1.0000   1.0000   1.0000   1.0000   1.0000   1.0000
     1.0000   1.0000   1.0000   1.0000   1.0000   1.0000   1.0000   1.0000
     1.0000   1.0000   1.0000   1.0000   1.0000   1.0000   1.0000   1.0000
     1.0000   1.0000   1.0000   1.0000   1.0000   1.0000   1.0000   1.0000
     1.0000   1.0000   1.0000   1.0000   1.0000   1.0000   1.0000   1.0000
     1.0000   1.0000   1.0000   1.0000   1.0000   1.0000   1.0000   1.0000
     1.0000   1.0000   1.0000   1.0000   1.0000   1.0000   1.0000   1.0000
     1.0000   1.0000   1.0000   1.0000   1.0000   1.0000   1.0000   1.0000
     1.0000   1.0000   1.0000   1.0000   1.0000   1.0000   1.0000   1.0000
     1.0000   1.0000   1.0000   1.0000   1.0000   1.0000   1.0000   1.0000
     1.0000   1.0000   1.0000   1.0000   1.0000   1.0000   1.0000   1.0000
     1.0000   1.0000   1.0000   1.0000   1.0000   1.0000   1.0000   1.0000
     1.0000   1.0000   1.0000   1.0000   1.0000   1.0000   1.0000   1.0000
     1.0000   1.0000   1.0000   1.0000   1.0000   1.0000   1.0000   1.0000
     1.0000   1.0000   1.0000   1.0000   1.0000   1.0000   1.0000   1.0000
     1.0000   1.0000   1.0000   1.0000   1.0000   1.0000   1.0000   1.0000
     1.0000   1.0000   1.0000   1.0000   1.0000   1.0000   1.0000   1.0000
     1.0000   1.0000   1.0000   1.0000   1.0000   1.0000   1.0000   1.0000
     1.0000   1.0000   1.0000   1.0000   1.0000   1.0000   1.0000   1.0000
     1.0000   1.0000   1.0000   1.0000   1.0000   1.0000   1.0000   1.0000
     1.0000   1.0000   1.0000   1.0000   1.0000   1.0000   1.0000   1.0000
     1.0000   1.0000   1.0000   1.0000   1.0000   1.0000   1.0000   1.0000
     1.0000   1.0000   1.0000   1.0000   1.0000   1.0000   1.0000   1.0000
     1.0000   1.0000   1.0000   1.0000   1.0000   1.0000   1.0000   1.0000
     1.0000   1.0000   1.0000   1.0000   1.0000   1.0000   1.0000   1.0000
     1.0000   1.0000   1.0000   1.0000   1.0000   1.0000   1.0000   1.0000
     1.0000   1.0000   1.0000   1.0000   1.0000   1.0000   1.0000   1.0000
     1.0000   1.0000   1.0000   1.0000   1.0000   1.0000   1.0000   1.0000
     1.0000   1.0000   1.0000   1.0000   1.0000   1.0000   1.0000   1.0000
     1.0000   1.0000   1.0000   1.0000   1.0000   1.0000   1.0000   1.0000
     1.0000   1.0000   1.0000   1.0000   1.0000   1.0000   1.0000   1.0000
     1.0000   1.0000   1.0000   1.0000   1.0000   1.0000   1.0000   1.0000
     1.0000   1.0000   1.0000   1.0000   1.0000   1.0000   1.0000   1.0000
     1.0000   1.0000   1.0000   1.0000   1.0000   1.0000   1.0000   1.0000
     1.0000   1.0000   1.0000   1.0000   1.0000   1.0000   1.0000   1.0000
     1.0000   1.0000   1.0000   1.0000   1.0000   1.0000   1.0000   1.0000
     1.0000   1.0000   1.0000   1.0000   1.0000   1.0000   1.0000   1.0000
     1.0000   1.0000   1.0000   1.0000   1.0000   1.0000   1.0000   1.0000
     1.0000   1.0000   1.0000   1.0000   1.0000   1.0000   1.0000   1.0000
     1.0000   1.0000   1.0000   1.0000   1.0000   1.0000   1.0000   1.0000
     1.0000   1.0000   1.0000   1.0000   1.0000   1.0000   1.0000   1.0000
     1.0000   1.0000   1.0000   1.0000   1.0000   1.0000   1.0000   1.0000
     1.0000   1.0000   1.0000   1.0000   1.0000   1.0000   1.0000   1.0000
     1.0000   1.0000   1.0000   1.0000   1.0000   1.0000   1.0000   1.0000
     1.0000   1.0000   1.0000   1.0000   1.0000   1.0000   1.0000   1.0000
     1.0000   1.0000   1.0000   1.0000   1.0000   1.0000   1.0000   1.0000
     1.0000   1.0000   1.0000   1.0000   1.0000   1.0000   1.0000   1.0000
     1.0000   1.0000   1.0000   1.0000   1.0000   1.0000   1.0000   1.0000
     1.0000   1.0000   1.0000   1.0000   1.0000   1.0000   1.0000   1.0000
     1.0000   1.0000   1.0000   1.0000   1.0000   1.0000   1.0000   1.0000
     1.0000   1.0000   1.0000   1.0000   1.0000   1.0000   1.0000   1.0000
     1.0000   1.0000   1.0000   1.0000   1.0000   1.0000   1.0000   1.0000
     1.0000   1.0000   1.0000   1.0000   1.0000   1.0000   1.0000   1.0000
     1.0000   1.0000   1.0000   1.0000   1.0000   1.0000   1.0000   1.0000
     1.0000   1.0000   1.0000   1.0000   1.0000   1.0000   1.0000   1.0000
     1.0000   1.0000   1.0000   1.0000   1.0000   1.0000   1.0000   1.0000
     1.0000   1.0000   1.0000   1.0000   1.0000   1.0000   1.0000   1.0000
     1.0000   1.0000   1.0000   1.0000   1.0000   1.0000   1.0000   0.9999
     0.9997   0.9996   0.9996   0.9996   0.9996   0.9995   0.9995   0.9995
     0.9995   0.9994   0.9992   0.9991   0.9991   0.9990   0.9979   0.9977
     0.9953   0.9949   0.9949   0.9939   0.9938   0.9931   0.9930   0.9905
     0.9815   0.9800   0.9754   0.9723   0.9616   0.9612   0.9599   0.9593
     0.9126   0.8832   0.7795   0.7758   0.7618   0.7594   0.7567   0.7465
     0.4933   0.4862   0.0414   0.0387   0.0384   0.0346   0.0081   0.0077
     0.0036   0.0004   0.0003   0.0000   0.0000   0.0000   0.0000   0.0000
     0.0000   0.0000   0.0000   0.0000   0.0000   0.0000   0.0000   0.0000
     0.0000   0.0000   0.0000   0.0000   0.0000   0.0000   0.0000   0.0000
     0.0000   0.0000   0.0000   0.0000   0.0000   0.0000   0.0000   0.0000
     0.0000   0.0000   0.0000   0.0000   0.0000   0.0000   0.0000   0.0000
     0.0000   0.0000   0.0000   0.0000   0.0000   0.0000   0.0000   0.0000
     0.0000   0.0000   0.0000   0.0000   0.0000   0.0000   0.0000   0.0000
     0.0000   0.0000   0.0000   0.0000   0.0000   0.0000   0.0000   0.0000
     0.0000   0.0000   0.0000   0.0000   0.0000   0.0000   0.0000   0.0000

          k =-0.2500 0.1443 0.0000 (100583 PWs)   bands (ev):

   -71.1988 -71.1924 -71.1921 -71.1809 -71.1805 -71.1795 -71.1793 -71.1791
   -71.1789 -71.1759 -71.1758 -71.1741 -71.1739 -71.1720 -71.1718 -71.1717
   -71.1715 -71.1713 -71.1712 -71.1711 -71.1710 -71.1707 -71.1705 -71.1688
   -71.1676 -71.1674 -71.1499 -71.1497 -71.1494 -71.1492 -71.1348 -71.1347
   -71.1343 -71.1341 -71.1333 -71.1332 -70.0716 -70.0715 -70.0189 -70.0188
   -70.0182 -70.0181 -70.0106 -70.0105 -70.0101 -70.0100 -70.0098 -70.0097
   -70.0060 -70.0057 -70.0056 -70.0012 -70.0003 -69.9988 -69.9987 -69.9984
   -69.9983 -69.9983 -69.9982 -69.9979 -69.9964 -69.9962 -69.9960 -69.9959
   -69.9843 -69.9796 -69.9789 -69.9747 -69.9683 -69.9682 -69.9247 -69.8930
   -37.3421 -37.3266 -37.3259 -37.3123 -37.3118 -37.3117 -37.3112 -37.3112
   -37.3105 -37.3101 -37.3093 -37.3083 -37.3082 -37.3070 -37.3060 -37.3050
   -37.3048 -37.3044 -37.3041 -37.3028 -37.3026 -37.3000 -37.2993 -37.2991
   -37.2964 -37.2959 -37.2829 -37.2821 -37.2786 -37.2781 -37.2668 -37.2659
   -37.2619 -37.2614 -37.2550 -37.2519 -37.2378 -37.2348 -37.2339 -37.2296
   -37.2257 -37.2239 -37.2233 -37.2231 -37.2229 -37.2227 -37.2226 -37.2202
   -37.2191 -37.2170 -37.2164 -37.2163 -37.2161 -37.2148 -37.2146 -37.2146
   -37.2143 -37.2138 -37.2127 -37.2125 -37.2116 -37.2103 -37.2101 -37.2101
   -37.2090 -37.2088 -37.2084 -37.2076 -37.2059 -37.2054 -37.2051 -37.2036
   -37.2028 -37.2022 -37.2019 -37.2019 -37.2011 -37.2006 -37.2003 -37.1994
   -37.1988 -37.1984 -37.1969 -37.1954 -37.1945 -37.1939 -37.1938 -37.1931
   -37.1902 -37.1899 -37.1885 -37.1884 -37.1832 -37.1826 -37.1809 -37.1806
   -37.1799 -37.1794 -37.1778 -37.1772 -37.1771 -37.1764 -37.1692 -37.1685
   -37.1591 -37.1587 -37.1586 -37.1577 -36.3315 -36.3310 -36.3011 -36.3007
   -36.2992 -36.2989 -36.2988 -36.2983 -36.2977 -36.2972 -36.2784 -36.2723
   -36.2392 -36.2389 -36.2197 -36.2194 -36.2169 -36.2164 -36.2111 -36.2108
   -36.2107 -36.2103 -36.2101 -36.2101 -36.2082 -36.2082 -36.2079 -36.2076
   -36.2074 -36.1998 -36.1991 -36.1939 -36.1936 -36.1784 -36.1675 -36.1079
   -36.1076 -36.1076 -36.0958 -36.0926 -36.0735 -36.0713 -36.0706 -36.0704
   -36.0655 -36.0653 -36.0603 -36.0599 -36.0598 -36.0592 -36.0590 -36.0588
   -36.0559 -36.0556 -36.0556 -36.0551 -36.0547 -36.0546 -36.0516 -36.0508
   -36.0468 -36.0376 -36.0368 -36.0356 -36.0352 -36.0338 -36.0322 -36.0317
   -36.0281 -36.0267 -36.0264 -36.0260 -36.0257 -36.0255 -36.0252 -36.0246
   -36.0239 -36.0232 -36.0226 -36.0218 -36.0192 -36.0185 -36.0179 -36.0157
   -36.0149 -36.0145 -36.0144 -36.0136 -36.0130 -36.0120 -36.0112 -36.0110
   -36.0109 -36.0104 -36.0103 -36.0098 -36.0087 -36.0081 -35.9905 -35.9899
   -35.9819 -35.9788 -35.9678 -35.9673 -35.9669 -35.9564 -35.9422 -35.9011
     3.3493   3.9176   4.1622   4.1964   4.3891   4.4416   4.6362   4.6658
     4.8354   4.8621   4.8795   5.0216   5.0582   5.0604   5.0666   5.2822
     5.2924   5.3357   5.3780   5.3822   5.3843   5.3998   5.4445   5.4829
     5.4843   5.7090   5.7132   5.7732   5.7773   5.7852   5.7880   5.8045
     5.8669   5.8783   6.1510   6.1533   8.6023   9.5957   9.6462   9.7698
    10.0283  10.0357  10.0401  10.0701  10.1342  10.1459  10.2140  10.3417
    10.4317  10.4357  10.4413  10.4611  10.4674  10.4693  10.4720  10.4728
    10.4793  10.4808  10.5853  10.6741  10.6760  10.6786  10.7805  10.7988
    10.8019  10.8329  10.8607  10.8635  11.0044  11.1331  11.1346  11.1361
    11.1724  11.1899  11.2170  11.2312  11.2354  11.2776  11.3609  11.3616
    11.3682  11.6562  11.6967  11.7352  11.8139  11.8180  11.8188  11.8239
    11.8251  11.8587  11.8613  11.8830  11.9346  12.0120  12.0140  12.0153
    12.0253  12.0333  12.0450  12.0553  12.0576  12.0657  12.2010  12.2586
    12.2782  12.2969  12.3193  12.3230  12.3260  12.3540  12.3640  12.3950
    12.4105  12.4121  12.4364  12.4610  12.4620  12.4801  12.4809  12.4991
    12.5004  12.5053  12.5095  12.5096  12.5212  12.5274  12.6906  12.6974
    12.7778  12.7782  12.7795  12.7797  12.8082  12.8182  12.8218  12.8233
    12.9199  12.9715  12.9755  12.9915  13.0089  13.1744  13.1748  13.1804
    13.3596  13.5243  13.5346  13.5355  13.5459  13.5575  13.5959  13.6092
    13.6785  13.6911  13.7007  13.7365  13.7457  13.7471  13.7532  13.7702
    13.7785  13.7819  13.8040  13.8137  13.8194  13.8233  13.8272  13.8287
    13.8321  13.8334  13.8443  13.8517  13.8532  13.8557  13.8680  13.8840
    13.9180  13.9382  13.9521  13.9639  13.9653  13.9835  13.9839  13.9898
    13.9940  14.0030  14.0084  14.0117  14.0181  14.0245  14.0276  14.0311
    14.0356  14.0360  14.0429  14.0431  14.0607  14.1079  14.1158  14.1206
    14.1405  14.1485  14.1516  14.1531  14.1672  14.1853  14.1978  14.2126
    14.2184  14.2224  14.2358  14.2419  14.2479  14.2517  14.2744  14.2944
    14.3057  14.3097  14.3256  14.3307  14.3455  14.3576  14.3678  14.3784
    14.5218  14.5311  14.6997  14.6999  14.7051  14.7054  14.7111  14.7128
    14.7504  14.7564  14.7779  14.7979  14.8063  14.8824  14.8863  14.9139
    14.9144  14.9239  14.9239  14.9294  14.9300  14.9536  14.9557  14.9653
    14.9686  14.9797  14.9853  15.0125  15.0251  15.0313  15.0326  15.0373
    15.0380  15.0405  15.0408  15.0589  15.0680  15.0761  15.1129  15.1255
    15.1345  15.1421  15.1445  15.1538  15.1985  15.2011  15.2032  15.2041
    15.2061  15.2063  15.2211  15.2232  15.2272  15.2353  15.2427  15.2499
    15.2500  15.2568  15.2612  15.2663  15.2724  15.2832  15.3048  15.3166
    15.3193  15.3236  15.3313  15.3334  15.3371  15.3464  15.3505  15.3599
    15.3689  15.3839  15.3842  15.3920  15.3980  15.4040  15.4072  15.4161
    15.4172  15.4228  15.4404  15.4664  15.4836  15.4932  15.5326  15.5686
    15.5782  15.6174  15.6340  15.6424  15.6434  15.6479  15.6508  15.6537
    15.6867  15.7310  15.7394  15.7401  15.7438  15.7463  15.7480  15.7492
    15.7578  15.7610  15.7660  15.7756  15.7930  15.8139  15.8226  15.8517
    15.8917  15.8955  15.9011  15.9158  15.9168  15.9315  15.9322  15.9489
    15.9562  15.9619  15.9656  15.9700  15.9736  16.0010  16.0022  16.0257
    16.0350  16.0522  16.0610  16.0674  16.0790  16.0852  16.0863  16.0935
    16.0957  16.1045  16.1095  16.1295  16.1315  16.1341  16.1413  16.1563
    16.1682  16.1765  16.1896  16.1915  16.2349  16.2439  16.2861  16.2865
    16.3016  16.3099  16.3215  16.3308  16.3314  16.3871  16.4019  16.4187
    16.4192  16.4207  16.4217  16.4317  16.4867  16.4935  16.5190  16.5205
    16.5278  16.5315  16.5318  16.5335  16.5387  16.5409  16.5550  16.5563
    16.5970  16.6359  16.6379  16.6435  16.6538  16.6575  16.6662  16.6675
    16.6698  16.7303  16.7374  16.7405  16.7426  16.7514  16.7681  16.7730
    16.7772  16.7901  16.7931  16.7961  16.8061  16.8070  16.8460  16.8490
    16.8517  16.8546  16.9087  16.9154  16.9220  16.9291  16.9363  16.9387
    16.9413  17.3844  17.4268  17.4635  17.6189  17.6216  17.9890  18.0244
    18.0447  18.0537  18.0614  18.0629  18.0717  18.0755  18.1432  18.1780
    18.1904  18.1974  18.2124  18.2132  18.2813  18.3065  18.3642  18.3763
    18.3852  18.4393  18.4420  18.4443  18.4464  18.4558  18.4717  18.4839
    18.6109  18.6130  18.9016  18.9182  18.9267  18.9305  18.9602  18.9734
    19.0051  19.0261  19.0433  19.0748  19.1510  19.2198  19.2331  19.2715
    19.3119  19.3228  19.3277  19.3323  19.3344  19.3677  19.4187  19.4843
    19.4904  19.5041  19.5147  19.5255  19.5361  19.6058  19.6372  19.6402
    19.6419  20.2112  20.3116  20.3176  20.4215  20.5083  20.5234  20.6947
    20.7399  21.0316  21.0595  21.0607  21.0915  21.1003  21.1176  21.1711

     occupation numbers 
     1.0000   1.0000   1.0000   1.0000   1.0000   1.0000   1.0000   1.0000
     1.0000   1.0000   1.0000   1.0000   1.0000   1.0000   1.0000   1.0000
     1.0000   1.0000   1.0000   1.0000   1.0000   1.0000   1.0000   1.0000
     1.0000   1.0000   1.0000   1.0000   1.0000   1.0000   1.0000   1.0000
     1.0000   1.0000   1.0000   1.0000   1.0000   1.0000   1.0000   1.0000
     1.0000   1.0000   1.0000   1.0000   1.0000   1.0000   1.0000   1.0000
     1.0000   1.0000   1.0000   1.0000   1.0000   1.0000   1.0000   1.0000
     1.0000   1.0000   1.0000   1.0000   1.0000   1.0000   1.0000   1.0000
     1.0000   1.0000   1.0000   1.0000   1.0000   1.0000   1.0000   1.0000
     1.0000   1.0000   1.0000   1.0000   1.0000   1.0000   1.0000   1.0000
     1.0000   1.0000   1.0000   1.0000   1.0000   1.0000   1.0000   1.0000
     1.0000   1.0000   1.0000   1.0000   1.0000   1.0000   1.0000   1.0000
     1.0000   1.0000   1.0000   1.0000   1.0000   1.0000   1.0000   1.0000
     1.0000   1.0000   1.0000   1.0000   1.0000   1.0000   1.0000   1.0000
     1.0000   1.0000   1.0000   1.0000   1.0000   1.0000   1.0000   1.0000
     1.0000   1.0000   1.0000   1.0000   1.0000   1.0000   1.0000   1.0000
     1.0000   1.0000   1.0000   1.0000   1.0000   1.0000   1.0000   1.0000
     1.0000   1.0000   1.0000   1.0000   1.0000   1.0000   1.0000   1.0000
     1.0000   1.0000   1.0000   1.0000   1.0000   1.0000   1.0000   1.0000
     1.0000   1.0000   1.0000   1.0000   1.0000   1.0000   1.0000   1.0000
     1.0000   1.0000   1.0000   1.0000   1.0000   1.0000   1.0000   1.0000
     1.0000   1.0000   1.0000   1.0000   1.0000   1.0000   1.0000   1.0000
     1.0000   1.0000   1.0000   1.0000   1.0000   1.0000   1.0000   1.0000
     1.0000   1.0000   1.0000   1.0000   1.0000   1.0000   1.0000   1.0000
     1.0000   1.0000   1.0000   1.0000   1.0000   1.0000   1.0000   1.0000
     1.0000   1.0000   1.0000   1.0000   1.0000   1.0000   1.0000   1.0000
     1.0000   1.0000   1.0000   1.0000   1.0000   1.0000   1.0000   1.0000
     1.0000   1.0000   1.0000   1.0000   1.0000   1.0000   1.0000   1.0000
     1.0000   1.0000   1.0000   1.0000   1.0000   1.0000   1.0000   1.0000
     1.0000   1.0000   1.0000   1.0000   1.0000   1.0000   1.0000   1.0000
     1.0000   1.0000   1.0000   1.0000   1.0000   1.0000   1.0000   1.0000
     1.0000   1.0000   1.0000   1.0000   1.0000   1.0000   1.0000   1.0000
     1.0000   1.0000   1.0000   1.0000   1.0000   1.0000   1.0000   1.0000
     1.0000   1.0000   1.0000   1.0000   1.0000   1.0000   1.0000   1.0000
     1.0000   1.0000   1.0000   1.0000   1.0000   1.0000   1.0000   1.0000
     1.0000   1.0000   1.0000   1.0000   1.0000   1.0000   1.0000   1.0000
     1.0000   1.0000   1.0000   1.0000   1.0000   1.0000   1.0000   1.0000
     1.0000   1.0000   1.0000   1.0000   1.0000   1.0000   1.0000   1.0000
     1.0000   1.0000   1.0000   1.0000   1.0000   1.0000   1.0000   1.0000
     1.0000   1.0000   1.0000   1.0000   1.0000   1.0000   1.0000   1.0000
     1.0000   1.0000   1.0000   1.0000   1.0000   1.0000   1.0000   1.0000
     1.0000   1.0000   1.0000   1.0000   1.0000   1.0000   1.0000   1.0000
     1.0000   1.0000   1.0000   1.0000   1.0000   1.0000   1.0000   1.0000
     1.0000   1.0000   1.0000   1.0000   1.0000   1.0000   1.0000   1.0000
     1.0000   1.0000   1.0000   1.0000   1.0000   1.0000   1.0000   1.0000
     1.0000   1.0000   1.0000   1.0000   1.0000   1.0000   1.0000   1.0000
     1.0000   1.0000   1.0000   1.0000   1.0000   1.0000   1.0000   1.0000
     1.0000   1.0000   1.0000   1.0000   1.0000   1.0000   1.0000   1.0000
     1.0000   1.0000   1.0000   1.0000   1.0000   1.0000   1.0000   1.0000
     1.0000   1.0000   1.0000   1.0000   1.0000   1.0000   1.0000   1.0000
     1.0000   1.0000   1.0000   1.0000   1.0000   1.0000   1.0000   1.0000
     1.0000   1.0000   1.0000   1.0000   1.0000   1.0000   1.0000   1.0000
     1.0000   1.0000   1.0000   1.0000   1.0000   1.0000   1.0000   1.0000
     1.0000   1.0000   1.0000   1.0000   1.0000   1.0000   1.0000   1.0000
     1.0000   1.0000   1.0000   1.0000   1.0000   1.0000   1.0000   1.0000
     1.0000   1.0000   1.0000   1.0000   1.0000   1.0000   1.0000   1.0000
     1.0000   1.0000   1.0000   1.0000   1.0000   1.0000   1.0000   1.0000
     1.0000   1.0000   1.0000   1.0000   1.0000   1.0000   1.0000   1.0000
     1.0000   1.0000   1.0000   1.0000   1.0000   1.0000   1.0000   1.0000
     1.0000   1.0000   1.0000   1.0000   1.0000   1.0000   1.0000   1.0000
     1.0000   1.0000   1.0000   1.0000   1.0000   1.0000   1.0000   1.0000
     1.0000   1.0000   1.0000   1.0000   1.0000   1.0000   1.0000   1.0000
     1.0000   1.0000   1.0000   1.0000   1.0000   1.0000   1.0000   1.0000
     1.0000   1.0000   1.0000   1.0000   1.0000   1.0000   1.0000   1.0000
     1.0000   1.0000   1.0000   1.0000   1.0000   1.0000   1.0000   1.0000
     1.0000   1.0000   1.0000   1.0000   1.0000   1.0000   1.0000   1.0000
     1.0000   1.0000   1.0000   1.0000   1.0000   1.0000   1.0000   1.0000
     1.0000   1.0000   1.0000   1.0000   1.0000   1.0000   1.0000   1.0000
     1.0000   1.0000   1.0000   1.0000   1.0000   1.0000   1.0000   1.0000
     1.0000   1.0000   1.0000   1.0000   1.0000   1.0000   1.0000   1.0000
     1.0000   1.0000   1.0000   1.0000   1.0000   1.0000   1.0000   1.0000
     1.0000   1.0000   1.0000   1.0000   1.0000   1.0000   1.0000   1.0000
     1.0000   1.0000   1.0000   1.0000   1.0000   1.0000   1.0000   1.0000
     1.0000   1.0000   1.0000   1.0000   1.0000   1.0000   1.0000   1.0000
     1.0000   1.0000   1.0000   1.0000   1.0000   1.0000   1.0000   1.0000
     1.0000   1.0000   1.0000   1.0000   1.0000   1.0000   1.0000   1.0000
     1.0000   1.0000   1.0000   1.0000   1.0000   1.0000   1.0000   1.0000
     1.0000   1.0000   1.0000   1.0000   1.0000   1.0000   1.0000   1.0000
     1.0000   1.0000   1.0000   1.0000   1.0000   1.0000   1.0000   1.0000
     1.0000   1.0000   1.0000   1.0000   1.0000   1.0000   1.0000   1.0000
     1.0000   1.0000   1.0000   1.0000   1.0000   1.0000   1.0000   1.0000
     1.0000   1.0000   1.0000   1.0000   1.0000   1.0000   1.0000   1.0000
     1.0000   1.0000   1.0000   1.0000   1.0000   1.0000   1.0000   1.0000
     1.0000   1.0000   1.0000   1.0000   1.0000   1.0000   1.0000   1.0000
     1.0000   1.0000   1.0000   1.0000   0.9999   0.9999   0.9998   0.9998
     0.9998   0.9998   0.9998   0.9998   0.9998   0.9998   0.9997   0.9997
     0.9993   0.9986   0.9986   0.9984   0.9981   0.9980   0.9977   0.9977
     0.9976   0.9939   0.9932   0.9929   0.9927   0.9917   0.9895   0.9888
     0.9881   0.9859   0.9853   0.9847   0.9826   0.9824   0.9715   0.9705
     0.9695   0.9684   0.9426   0.9385   0.9342   0.9294   0.9242   0.9224
     0.9204   0.1854   0.1324   0.0957   0.0173   0.0167   0.0000   0.0000
     0.0000   0.0000   0.0000   0.0000   0.0000   0.0000   0.0000   0.0000
     0.0000   0.0000   0.0000   0.0000   0.0000   0.0000   0.0000   0.0000
     0.0000   0.0000   0.0000   0.0000   0.0000   0.0000   0.0000   0.0000
     0.0000   0.0000   0.0000   0.0000   0.0000   0.0000   0.0000   0.0000
     0.0000   0.0000   0.0000   0.0000   0.0000   0.0000   0.0000   0.0000
     0.0000   0.0000   0.0000   0.0000   0.0000   0.0000   0.0000   0.0000
     0.0000   0.0000   0.0000   0.0000   0.0000   0.0000   0.0000   0.0000
     0.0000   0.0000   0.0000   0.0000   0.0000   0.0000   0.0000   0.0000
     0.0000   0.0000   0.0000   0.0000   0.0000   0.0000   0.0000   0.0000

          k = 0.0000 0.2887-0.2850 (100631 PWs)   bands (ev):

   -71.1988 -71.1924 -71.1921 -71.1809 -71.1805 -71.1795 -71.1793 -71.1791
   -71.1789 -71.1759 -71.1758 -71.1741 -71.1739 -71.1720 -71.1718 -71.1717
   -71.1714 -71.1713 -71.1712 -71.1711 -71.1710 -71.1707 -71.1705 -71.1688
   -71.1676 -71.1674 -71.1499 -71.1497 -71.1494 -71.1492 -71.1348 -71.1347
   -71.1343 -71.1341 -71.1333 -71.1332 -70.0716 -70.0715 -70.0189 -70.0188
   -70.0182 -70.0181 -70.0106 -70.0105 -70.0101 -70.0100 -70.0098 -70.0097
   -70.0060 -70.0057 -70.0056 -70.0012 -70.0003 -69.9988 -69.9987 -69.9984
   -69.9983 -69.9983 -69.9982 -69.9979 -69.9964 -69.9962 -69.9960 -69.9959
   -69.9843 -69.9796 -69.9789 -69.9747 -69.9683 -69.9682 -69.9247 -69.8930
   -37.3421 -37.3266 -37.3260 -37.3132 -37.3128 -37.3117 -37.3116 -37.3111
   -37.3101 -37.3092 -37.3090 -37.3088 -37.3077 -37.3059 -37.3058 -37.3055
   -37.3050 -37.3046 -37.3044 -37.3017 -37.3015 -37.3004 -37.2996 -37.2995
   -37.2968 -37.2963 -37.2828 -37.2820 -37.2788 -37.2783 -37.2667 -37.2658
   -37.2620 -37.2615 -37.2549 -37.2521 -37.2378 -37.2346 -37.2340 -37.2298
   -37.2258 -37.2240 -37.2233 -37.2232 -37.2228 -37.2226 -37.2220 -37.2201
   -37.2189 -37.2172 -37.2169 -37.2166 -37.2162 -37.2155 -37.2150 -37.2149
   -37.2138 -37.2135 -37.2126 -37.2126 -37.2108 -37.2105 -37.2102 -37.2100
   -37.2092 -37.2086 -37.2080 -37.2073 -37.2057 -37.2045 -37.2042 -37.2038
   -37.2033 -37.2029 -37.2025 -37.2017 -37.2013 -37.2009 -37.2007 -37.1994
   -37.1988 -37.1981 -37.1970 -37.1957 -37.1946 -37.1942 -37.1937 -37.1930
   -37.1902 -37.1896 -37.1886 -37.1884 -37.1830 -37.1824 -37.1806 -37.1803
   -37.1798 -37.1793 -37.1780 -37.1775 -37.1773 -37.1767 -37.1693 -37.1684
   -37.1591 -37.1587 -37.1586 -37.1577 -36.3315 -36.3310 -36.3011 -36.3007
   -36.2993 -36.2989 -36.2989 -36.2984 -36.2977 -36.2972 -36.2784 -36.2723
   -36.2392 -36.2389 -36.2197 -36.2194 -36.2169 -36.2164 -36.2112 -36.2108
   -36.2107 -36.2103 -36.2101 -36.2101 -36.2082 -36.2082 -36.2078 -36.2076
   -36.2074 -36.1998 -36.1991 -36.1939 -36.1936 -36.1784 -36.1675 -36.1079
   -36.1076 -36.1076 -36.0958 -36.0926 -36.0735 -36.0712 -36.0707 -36.0703
   -36.0655 -36.0653 -36.0603 -36.0599 -36.0597 -36.0591 -36.0591 -36.0588
   -36.0560 -36.0556 -36.0556 -36.0551 -36.0547 -36.0546 -36.0516 -36.0508
   -36.0468 -36.0376 -36.0369 -36.0356 -36.0352 -36.0336 -36.0323 -36.0319
   -36.0277 -36.0268 -36.0263 -36.0260 -36.0258 -36.0255 -36.0252 -36.0246
   -36.0241 -36.0232 -36.0228 -36.0210 -36.0192 -36.0185 -36.0183 -36.0162
   -36.0154 -36.0148 -36.0137 -36.0134 -36.0125 -36.0116 -36.0112 -36.0110
   -36.0108 -36.0105 -36.0102 -36.0101 -36.0088 -36.0083 -35.9905 -35.9899
   -35.9820 -35.9787 -35.9678 -35.9673 -35.9669 -35.9564 -35.9422 -35.9011
     3.4217   3.9529   4.0082   4.2268   4.2633   4.4835   4.6698   4.7168
     4.7217   4.7276   4.8778   4.9085   5.0958   5.1135   5.2328   5.2614
     5.3239   5.3312   5.3767   5.3894   5.4335   5.4821   5.5627   5.5830
     5.6043   5.6095   5.6177   5.6406   5.6552   5.7286   5.8341   5.8943
     5.9026   5.9875   6.0298   6.2490   8.6042   9.6671   9.7106   9.7468
     9.7969   9.8815   9.9437   9.9772  10.0398  10.0655  10.0673  10.0845
    10.1111  10.1556  10.2600  10.3583  10.4538  10.5120  10.5295  10.5664
    10.5828  10.6084  10.6388  10.6454  10.6737  10.7215  10.8072  10.8431
    10.8607  10.8698  10.8975  11.0191  11.1058  11.1578  11.1956  11.2262
    11.2586  11.3638  11.4146  11.4247  11.4312  11.4370  11.4871  11.5501
    11.5640  11.5703  11.6530  11.6716  11.7886  11.8340  11.8698  11.8961
    11.9146  11.9586  11.9748  11.9967  12.0188  12.0356  12.0475  12.0747
    12.0877  12.0896  12.1049  12.1090  12.1156  12.1236  12.1279  12.1796
    12.1973  12.2523  12.2771  12.2814  12.2846  12.2859  12.2937  12.2991
    12.3651  12.3881  12.4014  12.4078  12.4190  12.4196  12.4235  12.4308
    12.4748  12.5423  12.5455  12.5808  12.6014  12.6070  12.6220  12.6502
    12.6516  12.6581  12.6735  12.7259  12.7348  12.8045  12.8279  12.8309
    12.8504  12.9348  12.9396  12.9538  12.9637  13.1053  13.1673  13.1756
    13.2557  13.5134  13.5402  13.5773  13.5865  13.5952  13.6271  13.6282
    13.6566  13.7068  13.7130  13.7170  13.7253  13.7488  13.7661  13.7709
    13.7784  13.7819  13.7878  13.7950  13.7988  13.8027  13.8059  13.8154
    13.8384  13.8483  13.8523  13.8574  13.8617  13.8731  13.8787  13.8870
    13.8977  13.9109  13.9353  13.9435  13.9573  13.9598  13.9647  13.9663
    13.9704  13.9739  13.9782  13.9908  14.0007  14.0059  14.0151  14.0201
    14.0288  14.0391  14.0485  14.0644  14.0851  14.0931  14.0959  14.1184
    14.1248  14.1302  14.1425  14.1506  14.1591  14.1697  14.1773  14.1832
    14.1889  14.1915  14.2072  14.2317  14.2531  14.2935  14.3039  14.3059
    14.3120  14.3230  14.3555  14.3614  14.3680  14.3784  14.4526  14.4694
    14.5256  14.5934  14.6070  14.6099  14.6164  14.7328  14.7591  14.7621
    14.7672  14.8510  14.8623  14.8698  14.8708  14.8755  14.8790  14.8838
    14.9251  14.9354  14.9488  14.9598  14.9752  14.9823  14.9855  14.9896
    14.9927  14.9985  15.0016  15.0060  15.0165  15.0276  15.0286  15.0319
    15.0349  15.0421  15.0497  15.0554  15.0634  15.0825  15.0854  15.1047
    15.1118  15.1128  15.1195  15.1368  15.1461  15.1503  15.1552  15.1591
    15.1624  15.1703  15.1734  15.1869  15.1980  15.1994  15.2152  15.2439
    15.2548  15.2567  15.2612  15.2658  15.2712  15.2752  15.2936  15.2951
    15.3015  15.3078  15.3216  15.3364  15.3428  15.3453  15.3624  15.3717
    15.3919  15.4080  15.4174  15.4245  15.4337  15.4434  15.4482  15.4638
    15.4831  15.4976  15.5049  15.5069  15.5103  15.5135  15.5343  15.5624
    15.5684  15.5813  15.6098  15.6125  15.6264  15.6808  15.6906  15.6941
    15.6986  15.7031  15.7107  15.7294  15.7339  15.7366  15.7471  15.7512
    15.7549  15.7692  15.7810  15.8142  15.8313  15.8368  15.8401  15.8463
    15.8577  15.8756  15.8891  15.8944  15.9101  15.9183  15.9292  15.9373
    15.9529  15.9602  15.9813  15.9845  15.9865  15.9881  15.9938  16.0004
    16.0068  16.0104  16.0135  16.0202  16.0359  16.0398  16.0444  16.0476
    16.0510  16.0590  16.0945  16.1130  16.1206  16.1291  16.1351  16.1377
    16.1503  16.1596  16.1632  16.1716  16.1815  16.2432  16.2456  16.2811
    16.3403  16.3494  16.3502  16.3681  16.3721  16.3796  16.3814  16.3993
    16.4266  16.4328  16.4383  16.4404  16.4413  16.4735  16.5115  16.5129
    16.5306  16.5402  16.5423  16.5449  16.5477  16.5519  16.5584  16.5683
    16.5719  16.5753  16.5822  16.5979  16.6256  16.6438  16.6802  16.6884
    16.6921  16.7199  16.7228  16.7277  16.7409  16.7532  16.7587  16.7621
    16.7677  16.7729  16.8013  16.8277  16.8379  16.8458  16.8549  16.8997
    16.9379  16.9485  16.9615  16.9712  16.9967  17.0025  17.0791  17.1489
    17.1591  17.2057  17.3947  17.5130  17.5894  17.7344  17.8509  17.9006
    17.9244  17.9494  17.9604  17.9647  17.9703  18.0605  18.0660  18.0734
    18.0972  18.2135  18.2300  18.2415  18.2506  18.3049  18.3198  18.3611
    18.3748  18.4951  18.5303  18.5927  18.6034  18.6233  18.6467  18.6646
    18.6797  18.7248  18.7854  18.8126  18.8783  18.8819  18.8893  18.8978
    18.9079  18.9294  18.9751  19.0197  19.0800  19.0883  19.0904  19.2312
    19.2374  19.2435  19.2796  19.3341  19.3599  19.3768  19.3953  19.4006
    19.4047  19.5143  19.5743  19.5985  19.6096  19.7306  19.7611  19.9023
    19.9230  19.9413  19.9527  19.9754  20.0041  20.1103  20.4342  20.4880
    20.5799  20.6882  20.8064  20.8369  20.9292  21.2211  21.2899  21.3364

     occupation numbers 
     1.0000   1.0000   1.0000   1.0000   1.0000   1.0000   1.0000   1.0000
     1.0000   1.0000   1.0000   1.0000   1.0000   1.0000   1.0000   1.0000
     1.0000   1.0000   1.0000   1.0000   1.0000   1.0000   1.0000   1.0000
     1.0000   1.0000   1.0000   1.0000   1.0000   1.0000   1.0000   1.0000
     1.0000   1.0000   1.0000   1.0000   1.0000   1.0000   1.0000   1.0000
     1.0000   1.0000   1.0000   1.0000   1.0000   1.0000   1.0000   1.0000
     1.0000   1.0000   1.0000   1.0000   1.0000   1.0000   1.0000   1.0000
     1.0000   1.0000   1.0000   1.0000   1.0000   1.0000   1.0000   1.0000
     1.0000   1.0000   1.0000   1.0000   1.0000   1.0000   1.0000   1.0000
     1.0000   1.0000   1.0000   1.0000   1.0000   1.0000   1.0000   1.0000
     1.0000   1.0000   1.0000   1.0000   1.0000   1.0000   1.0000   1.0000
     1.0000   1.0000   1.0000   1.0000   1.0000   1.0000   1.0000   1.0000
     1.0000   1.0000   1.0000   1.0000   1.0000   1.0000   1.0000   1.0000
     1.0000   1.0000   1.0000   1.0000   1.0000   1.0000   1.0000   1.0000
     1.0000   1.0000   1.0000   1.0000   1.0000   1.0000   1.0000   1.0000
     1.0000   1.0000   1.0000   1.0000   1.0000   1.0000   1.0000   1.0000
     1.0000   1.0000   1.0000   1.0000   1.0000   1.0000   1.0000   1.0000
     1.0000   1.0000   1.0000   1.0000   1.0000   1.0000   1.0000   1.0000
     1.0000   1.0000   1.0000   1.0000   1.0000   1.0000   1.0000   1.0000
     1.0000   1.0000   1.0000   1.0000   1.0000   1.0000   1.0000   1.0000
     1.0000   1.0000   1.0000   1.0000   1.0000   1.0000   1.0000   1.0000
     1.0000   1.0000   1.0000   1.0000   1.0000   1.0000   1.0000   1.0000
     1.0000   1.0000   1.0000   1.0000   1.0000   1.0000   1.0000   1.0000
     1.0000   1.0000   1.0000   1.0000   1.0000   1.0000   1.0000   1.0000
     1.0000   1.0000   1.0000   1.0000   1.0000   1.0000   1.0000   1.0000
     1.0000   1.0000   1.0000   1.0000   1.0000   1.0000   1.0000   1.0000
     1.0000   1.0000   1.0000   1.0000   1.0000   1.0000   1.0000   1.0000
     1.0000   1.0000   1.0000   1.0000   1.0000   1.0000   1.0000   1.0000
     1.0000   1.0000   1.0000   1.0000   1.0000   1.0000   1.0000   1.0000
     1.0000   1.0000   1.0000   1.0000   1.0000   1.0000   1.0000   1.0000
     1.0000   1.0000   1.0000   1.0000   1.0000   1.0000   1.0000   1.0000
     1.0000   1.0000   1.0000   1.0000   1.0000   1.0000   1.0000   1.0000
     1.0000   1.0000   1.0000   1.0000   1.0000   1.0000   1.0000   1.0000
     1.0000   1.0000   1.0000   1.0000   1.0000   1.0000   1.0000   1.0000
     1.0000   1.0000   1.0000   1.0000   1.0000   1.0000   1.0000   1.0000
     1.0000   1.0000   1.0000   1.0000   1.0000   1.0000   1.0000   1.0000
     1.0000   1.0000   1.0000   1.0000   1.0000   1.0000   1.0000   1.0000
     1.0000   1.0000   1.0000   1.0000   1.0000   1.0000   1.0000   1.0000
     1.0000   1.0000   1.0000   1.0000   1.0000   1.0000   1.0000   1.0000
     1.0000   1.0000   1.0000   1.0000   1.0000   1.0000   1.0000   1.0000
     1.0000   1.0000   1.0000   1.0000   1.0000   1.0000   1.0000   1.0000
     1.0000   1.0000   1.0000   1.0000   1.0000   1.0000   1.0000   1.0000
     1.0000   1.0000   1.0000   1.0000   1.0000   1.0000   1.0000   1.0000
     1.0000   1.0000   1.0000   1.0000   1.0000   1.0000   1.0000   1.0000
     1.0000   1.0000   1.0000   1.0000   1.0000   1.0000   1.0000   1.0000
     1.0000   1.0000   1.0000   1.0000   1.0000   1.0000   1.0000   1.0000
     1.0000   1.0000   1.0000   1.0000   1.0000   1.0000   1.0000   1.0000
     1.0000   1.0000   1.0000   1.0000   1.0000   1.0000   1.0000   1.0000
     1.0000   1.0000   1.0000   1.0000   1.0000   1.0000   1.0000   1.0000
     1.0000   1.0000   1.0000   1.0000   1.0000   1.0000   1.0000   1.0000
     1.0000   1.0000   1.0000   1.0000   1.0000   1.0000   1.0000   1.0000
     1.0000   1.0000   1.0000   1.0000   1.0000   1.0000   1.0000   1.0000
     1.0000   1.0000   1.0000   1.0000   1.0000   1.0000   1.0000   1.0000
     1.0000   1.0000   1.0000   1.0000   1.0000   1.0000   1.0000   1.0000
     1.0000   1.0000   1.0000   1.0000   1.0000   1.0000   1.0000   1.0000
     1.0000   1.0000   1.0000   1.0000   1.0000   1.0000   1.0000   1.0000
     1.0000   1.0000   1.0000   1.0000   1.0000   1.0000   1.0000   1.0000
     1.0000   1.0000   1.0000   1.0000   1.0000   1.0000   1.0000   1.0000
     1.0000   1.0000   1.0000   1.0000   1.0000   1.0000   1.0000   1.0000
     1.0000   1.0000   1.0000   1.0000   1.0000   1.0000   1.0000   1.0000
     1.0000   1.0000   1.0000   1.0000   1.0000   1.0000   1.0000   1.0000
     1.0000   1.0000   1.0000   1.0000   1.0000   1.0000   1.0000   1.0000
     1.0000   1.0000   1.0000   1.0000   1.0000   1.0000   1.0000   1.0000
     1.0000   1.0000   1.0000   1.0000   1.0000   1.0000   1.0000   1.0000
     1.0000   1.0000   1.0000   1.0000   1.0000   1.0000   1.0000   1.0000
     1.0000   1.0000   1.0000   1.0000   1.0000   1.0000   1.0000   1.0000
     1.0000   1.0000   1.0000   1.0000   1.0000   1.0000   1.0000   1.0000
     1.0000   1.0000   1.0000   1.0000   1.0000   1.0000   1.0000   1.0000
     1.0000   1.0000   1.0000   1.0000   1.0000   1.0000   1.0000   1.0000
     1.0000   1.0000   1.0000   1.0000   1.0000   1.0000   1.0000   1.0000
     1.0000   1.0000   1.0000   1.0000   1.0000   1.0000   1.0000   1.0000
     1.0000   1.0000   1.0000   1.0000   1.0000   1.0000   1.0000   1.0000
     1.0000   1.0000   1.0000   1.0000   1.0000   1.0000   1.0000   1.0000
     1.0000   1.0000   1.0000   1.0000   1.0000   1.0000   1.0000   1.0000
     1.0000   1.0000   1.0000   1.0000   1.0000   1.0000   1.0000   1.0000
     1.0000   1.0000   1.0000   1.0000   1.0000   1.0000   1.0000   1.0000
     1.0000   1.0000   1.0000   1.0000   1.0000   1.0000   1.0000   1.0000
     1.0000   1.0000   1.0000   1.0000   1.0000   1.0000   1.0000   1.0000
     1.0000   1.0000   1.0000   1.0000   1.0000   1.0000   1.0000   1.0000
     1.0000   1.0000   1.0000   1.0000   1.0000   1.0000   1.0000   1.0000
     1.0000   1.0000   1.0000   1.0000   1.0000   1.0000   1.0000   1.0000
     1.0000   1.0000   1.0000   1.0000   1.0000   1.0000   1.0000   1.0000
     1.0000   1.0000   1.0000   1.0000   1.0000   1.0000   1.0000   1.0000
     1.0000   1.0000   1.0000   1.0000   1.0000   1.0000   1.0000   1.0000
     1.0000   1.0000   1.0000   1.0000   1.0000   0.9999   0.9999   0.9999
     0.9998   0.9998   0.9998   0.9997   0.9997   0.9997   0.9997   0.9996
     0.9996   0.9995   0.9995   0.9993   0.9989   0.9984   0.9972   0.9968
     0.9966   0.9947   0.9945   0.9941   0.9928   0.9915   0.9908   0.9903
     0.9896   0.9888   0.9836   0.9772   0.9741   0.9715   0.9683   0.9478
     0.9230   0.9147   0.9037   0.8948   0.8686   0.8620   0.7555   0.6288
     0.6087   0.5135   0.1715   0.0590   0.0250   0.0033   0.0005   0.0002
     0.0001   0.0001   0.0001   0.0000   0.0000   0.0000   0.0000   0.0000
     0.0000   0.0000   0.0000   0.0000   0.0000   0.0000   0.0000   0.0000
     0.0000   0.0000   0.0000   0.0000   0.0000   0.0000   0.0000   0.0000
     0.0000   0.0000   0.0000   0.0000   0.0000   0.0000   0.0000   0.0000
     0.0000   0.0000   0.0000   0.0000   0.0000   0.0000   0.0000   0.0000
     0.0000   0.0000   0.0000   0.0000   0.0000   0.0000   0.0000   0.0000
     0.0000   0.0000   0.0000   0.0000   0.0000   0.0000   0.0000   0.0000
     0.0000   0.0000   0.0000   0.0000   0.0000   0.0000   0.0000   0.0000
     0.0000   0.0000   0.0000   0.0000   0.0000   0.0000   0.0000   0.0000

          k =-0.2500 0.1443 0.2850 (100631 PWs)   bands (ev):

   -71.1988 -71.1924 -71.1921 -71.1809 -71.1805 -71.1795 -71.1793 -71.1791
   -71.1789 -71.1759 -71.1758 -71.1741 -71.1739 -71.1720 -71.1718 -71.1717
   -71.1714 -71.1713 -71.1712 -71.1711 -71.1710 -71.1707 -71.1705 -71.1688
   -71.1676 -71.1674 -71.1499 -71.1497 -71.1494 -71.1492 -71.1348 -71.1347
   -71.1343 -71.1341 -71.1333 -71.1332 -70.0716 -70.0715 -70.0189 -70.0188
   -70.0182 -70.0181 -70.0106 -70.0105 -70.0101 -70.0100 -70.0098 -70.0097
   -70.0060 -70.0057 -70.0056 -70.0012 -70.0003 -69.9988 -69.9987 -69.9984
   -69.9983 -69.9983 -69.9982 -69.9979 -69.9964 -69.9962 -69.9960 -69.9959
   -69.9843 -69.9796 -69.9789 -69.9747 -69.9683 -69.9682 -69.9247 -69.8930
   -37.3421 -37.3266 -37.3260 -37.3132 -37.3128 -37.3117 -37.3116 -37.3111
   -37.3101 -37.3092 -37.3090 -37.3088 -37.3077 -37.3059 -37.3058 -37.3055
   -37.3049 -37.3046 -37.3044 -37.3017 -37.3015 -37.3004 -37.2996 -37.2995
   -37.2968 -37.2963 -37.2828 -37.2820 -37.2788 -37.2782 -37.2667 -37.2658
   -37.2620 -37.2615 -37.2549 -37.2521 -37.2378 -37.2348 -37.2339 -37.2296
   -37.2258 -37.2239 -37.2233 -37.2231 -37.2229 -37.2227 -37.2226 -37.2202
   -37.2191 -37.2170 -37.2166 -37.2162 -37.2161 -37.2148 -37.2146 -37.2146
   -37.2144 -37.2139 -37.2127 -37.2125 -37.2116 -37.2103 -37.2102 -37.2101
   -37.2091 -37.2088 -37.2084 -37.2077 -37.2059 -37.2054 -37.2050 -37.2036
   -37.2027 -37.2022 -37.2020 -37.2019 -37.2011 -37.2007 -37.2003 -37.1994
   -37.1988 -37.1983 -37.1970 -37.1954 -37.1945 -37.1940 -37.1937 -37.1931
   -37.1902 -37.1899 -37.1885 -37.1884 -37.1832 -37.1826 -37.1809 -37.1806
   -37.1799 -37.1794 -37.1778 -37.1772 -37.1770 -37.1764 -37.1693 -37.1684
   -37.1592 -37.1586 -37.1586 -37.1577 -36.3315 -36.3311 -36.3011 -36.3007
   -36.2993 -36.2989 -36.2989 -36.2983 -36.2977 -36.2972 -36.2784 -36.2723
   -36.2392 -36.2389 -36.2196 -36.2194 -36.2169 -36.2164 -36.2111 -36.2108
   -36.2108 -36.2103 -36.2102 -36.2101 -36.2082 -36.2082 -36.2079 -36.2076
   -36.2074 -36.1998 -36.1991 -36.1939 -36.1936 -36.1784 -36.1675 -36.1079
   -36.1076 -36.1076 -36.0958 -36.0926 -36.0735 -36.0713 -36.0707 -36.0703
   -36.0655 -36.0653 -36.0603 -36.0599 -36.0598 -36.0592 -36.0591 -36.0588
   -36.0559 -36.0556 -36.0556 -36.0551 -36.0547 -36.0546 -36.0516 -36.0508
   -36.0468 -36.0376 -36.0369 -36.0356 -36.0352 -36.0336 -36.0325 -36.0318
   -36.0279 -36.0267 -36.0264 -36.0260 -36.0257 -36.0254 -36.0252 -36.0246
   -36.0242 -36.0232 -36.0228 -36.0210 -36.0192 -36.0185 -36.0183 -36.0162
   -36.0154 -36.0147 -36.0138 -36.0134 -36.0126 -36.0116 -36.0112 -36.0109
   -36.0108 -36.0105 -36.0102 -36.0101 -36.0089 -36.0083 -35.9905 -35.9899
   -35.9820 -35.9787 -35.9678 -35.9673 -35.9669 -35.9564 -35.9422 -35.9011
     3.4218   3.9544   4.0068   4.2323   4.2588   4.4838   4.6640   4.7197
     4.7200   4.7232   4.8860   4.9064   5.0879   5.1144   5.2449   5.2596
     5.3263   5.3344   5.3742   5.3858   5.4333   5.4790   5.5592   5.5858
     5.6051   5.6138   5.6186   5.6395   5.6553   5.7255   5.8331   5.8965
     5.9095   5.9823   6.0291   6.2485   8.5972   9.6641   9.7097   9.7592
     9.7944   9.8505   9.9581   9.9785  10.0422  10.0674  10.0682  10.0840
    10.1039  10.1793  10.2442  10.3765  10.4708  10.5106  10.5306  10.5624
    10.5881  10.6086  10.6350  10.6429  10.6640  10.7293  10.8195  10.8356
    10.8606  10.8836  10.8904  11.0176  11.0632  11.1780  11.2129  11.2314
    11.2831  11.3083  11.4121  11.4266  11.4280  11.4402  11.4909  11.5263
    11.5630  11.5678  11.6559  11.6862  11.8008  11.8319  11.8644  11.8961
    11.9096  11.9593  11.9734  12.0011  12.0287  12.0375  12.0566  12.0729
    12.0750  12.0865  12.0978  12.1089  12.1106  12.1224  12.1238  12.1865
    12.1970  12.2462  12.2790  12.2829  12.2853  12.2888  12.3017  12.3075
    12.3508  12.3824  12.4048  12.4070  12.4180  12.4208  12.4237  12.4316
    12.4778  12.5366  12.5560  12.5913  12.5947  12.6040  12.6167  12.6511
    12.6557  12.6643  12.6747  12.7244  12.7349  12.7993  12.8219  12.8327
    12.8421  12.9370  12.9460  12.9503  12.9609  13.1221  13.1622  13.1859
    13.2654  13.5183  13.5360  13.5760  13.5858  13.5908  13.6267  13.6365
    13.6426  13.7036  13.7139  13.7161  13.7411  13.7536  13.7654  13.7670
    13.7708  13.7819  13.7875  13.7914  13.7982  13.8032  13.8069  13.8252
    13.8441  13.8514  13.8527  13.8553  13.8563  13.8645  13.8786  13.8829
    13.8917  13.9085  13.9327  13.9468  13.9514  13.9587  13.9618  13.9640
    13.9725  13.9740  13.9852  13.9939  13.9969  14.0026  14.0164  14.0216
    14.0341  14.0349  14.0542  14.0638  14.0769  14.0894  14.1014  14.1102
    14.1232  14.1360  14.1441  14.1519  14.1702  14.1728  14.1779  14.1822
    14.1834  14.1897  14.2005  14.2272  14.2496  14.2894  14.3043  14.3068
    14.3128  14.3220  14.3622  14.3646  14.3689  14.3796  14.4515  14.4680
    14.5346  14.5975  14.6060  14.6102  14.6146  14.7428  14.7521  14.7641
    14.7685  14.8393  14.8518  14.8672  14.8711  14.8733  14.8769  14.8863
    14.9243  14.9408  14.9491  14.9664  14.9711  14.9800  14.9888  14.9894
    14.9939  14.9976  15.0032  15.0051  15.0235  15.0268  15.0288  15.0335
    15.0351  15.0360  15.0488  15.0544  15.0644  15.0809  15.0846  15.1037
    15.1124  15.1133  15.1209  15.1359  15.1475  15.1506  15.1547  15.1611
    15.1631  15.1700  15.1774  15.1889  15.1968  15.2033  15.2054  15.2490
    15.2561  15.2607  15.2630  15.2653  15.2698  15.2759  15.2918  15.2989
    15.3025  15.3041  15.3203  15.3296  15.3426  15.3473  15.3594  15.3712
    15.3941  15.4035  15.4232  15.4262  15.4305  15.4451  15.4471  15.4657
    15.4880  15.4914  15.5026  15.5063  15.5095  15.5162  15.5318  15.5642
    15.5728  15.5787  15.6090  15.6168  15.6392  15.6679  15.6911  15.6973
    15.7023  15.7043  15.7099  15.7324  15.7353  15.7386  15.7442  15.7510
    15.7533  15.7715  15.7768  15.8097  15.8319  15.8357  15.8394  15.8431
    15.8563  15.8806  15.8959  15.8998  15.9051  15.9137  15.9294  15.9420
    15.9553  15.9637  15.9743  15.9839  15.9879  15.9890  15.9950  16.0009
    16.0054  16.0108  16.0124  16.0202  16.0377  16.0424  16.0435  16.0479
    16.0519  16.0562  16.0931  16.1121  16.1200  16.1273  16.1356  16.1372
    16.1496  16.1560  16.1645  16.1723  16.1832  16.2422  16.2472  16.2796
    16.3358  16.3475  16.3501  16.3593  16.3700  16.3785  16.3802  16.4014
    16.4204  16.4329  16.4373  16.4400  16.4430  16.4706  16.5077  16.5117
    16.5324  16.5380  16.5423  16.5462  16.5484  16.5544  16.5582  16.5668
    16.5746  16.5764  16.5817  16.6003  16.6238  16.6427  16.6830  16.6894
    16.6968  16.7174  16.7219  16.7261  16.7423  16.7543  16.7585  16.7617
    16.7661  16.7710  16.8053  16.8168  16.8454  16.8494  16.8559  16.8978
    16.9343  16.9570  16.9645  16.9716  16.9985  17.0068  17.0821  17.1388
    17.1584  17.2070  17.3954  17.5124  17.5928  17.7345  17.8524  17.8993
    17.9278  17.9488  17.9593  17.9625  17.9681  18.0571  18.0659  18.0858
    18.1030  18.2129  18.2275  18.2432  18.2505  18.3074  18.3131  18.3518
    18.3721  18.5004  18.5365  18.5802  18.5996  18.6275  18.6447  18.6719
    18.6796  18.7344  18.7617  18.8131  18.8782  18.8818  18.8845  18.9037
    18.9079  18.9337  18.9869  19.0212  19.0787  19.0805  19.0906  19.2353
    19.2370  19.2422  19.2842  19.3400  19.3608  19.3781  19.3833  19.3981
    19.4064  19.5286  19.5843  19.5932  19.6070  19.7367  19.7613  19.8980
    19.9224  19.9413  19.9496  19.9886  20.0077  20.1118  20.4341  20.4795
    20.5742  20.6907  20.8091  20.8285  20.8856  21.2518  21.2623  21.3522

     occupation numbers 
     1.0000   1.0000   1.0000   1.0000   1.0000   1.0000   1.0000   1.0000
     1.0000   1.0000   1.0000   1.0000   1.0000   1.0000   1.0000   1.0000
     1.0000   1.0000   1.0000   1.0000   1.0000   1.0000   1.0000   1.0000
     1.0000   1.0000   1.0000   1.0000   1.0000   1.0000   1.0000   1.0000
     1.0000   1.0000   1.0000   1.0000   1.0000   1.0000   1.0000   1.0000
     1.0000   1.0000   1.0000   1.0000   1.0000   1.0000   1.0000   1.0000
     1.0000   1.0000   1.0000   1.0000   1.0000   1.0000   1.0000   1.0000
     1.0000   1.0000   1.0000   1.0000   1.0000   1.0000   1.0000   1.0000
     1.0000   1.0000   1.0000   1.0000   1.0000   1.0000   1.0000   1.0000
     1.0000   1.0000   1.0000   1.0000   1.0000   1.0000   1.0000   1.0000
     1.0000   1.0000   1.0000   1.0000   1.0000   1.0000   1.0000   1.0000
     1.0000   1.0000   1.0000   1.0000   1.0000   1.0000   1.0000   1.0000
     1.0000   1.0000   1.0000   1.0000   1.0000   1.0000   1.0000   1.0000
     1.0000   1.0000   1.0000   1.0000   1.0000   1.0000   1.0000   1.0000
     1.0000   1.0000   1.0000   1.0000   1.0000   1.0000   1.0000   1.0000
     1.0000   1.0000   1.0000   1.0000   1.0000   1.0000   1.0000   1.0000
     1.0000   1.0000   1.0000   1.0000   1.0000   1.0000   1.0000   1.0000
     1.0000   1.0000   1.0000   1.0000   1.0000   1.0000   1.0000   1.0000
     1.0000   1.0000   1.0000   1.0000   1.0000   1.0000   1.0000   1.0000
     1.0000   1.0000   1.0000   1.0000   1.0000   1.0000   1.0000   1.0000
     1.0000   1.0000   1.0000   1.0000   1.0000   1.0000   1.0000   1.0000
     1.0000   1.0000   1.0000   1.0000   1.0000   1.0000   1.0000   1.0000
     1.0000   1.0000   1.0000   1.0000   1.0000   1.0000   1.0000   1.0000
     1.0000   1.0000   1.0000   1.0000   1.0000   1.0000   1.0000   1.0000
     1.0000   1.0000   1.0000   1.0000   1.0000   1.0000   1.0000   1.0000
     1.0000   1.0000   1.0000   1.0000   1.0000   1.0000   1.0000   1.0000
     1.0000   1.0000   1.0000   1.0000   1.0000   1.0000   1.0000   1.0000
     1.0000   1.0000   1.0000   1.0000   1.0000   1.0000   1.0000   1.0000
     1.0000   1.0000   1.0000   1.0000   1.0000   1.0000   1.0000   1.0000
     1.0000   1.0000   1.0000   1.0000   1.0000   1.0000   1.0000   1.0000
     1.0000   1.0000   1.0000   1.0000   1.0000   1.0000   1.0000   1.0000
     1.0000   1.0000   1.0000   1.0000   1.0000   1.0000   1.0000   1.0000
     1.0000   1.0000   1.0000   1.0000   1.0000   1.0000   1.0000   1.0000
     1.0000   1.0000   1.0000   1.0000   1.0000   1.0000   1.0000   1.0000
     1.0000   1.0000   1.0000   1.0000   1.0000   1.0000   1.0000   1.0000
     1.0000   1.0000   1.0000   1.0000   1.0000   1.0000   1.0000   1.0000
     1.0000   1.0000   1.0000   1.0000   1.0000   1.0000   1.0000   1.0000
     1.0000   1.0000   1.0000   1.0000   1.0000   1.0000   1.0000   1.0000
     1.0000   1.0000   1.0000   1.0000   1.0000   1.0000   1.0000   1.0000
     1.0000   1.0000   1.0000   1.0000   1.0000   1.0000   1.0000   1.0000
     1.0000   1.0000   1.0000   1.0000   1.0000   1.0000   1.0000   1.0000
     1.0000   1.0000   1.0000   1.0000   1.0000   1.0000   1.0000   1.0000
     1.0000   1.0000   1.0000   1.0000   1.0000   1.0000   1.0000   1.0000
     1.0000   1.0000   1.0000   1.0000   1.0000   1.0000   1.0000   1.0000
     1.0000   1.0000   1.0000   1.0000   1.0000   1.0000   1.0000   1.0000
     1.0000   1.0000   1.0000   1.0000   1.0000   1.0000   1.0000   1.0000
     1.0000   1.0000   1.0000   1.0000   1.0000   1.0000   1.0000   1.0000
     1.0000   1.0000   1.0000   1.0000   1.0000   1.0000   1.0000   1.0000
     1.0000   1.0000   1.0000   1.0000   1.0000   1.0000   1.0000   1.0000
     1.0000   1.0000   1.0000   1.0000   1.0000   1.0000   1.0000   1.0000
     1.0000   1.0000   1.0000   1.0000   1.0000   1.0000   1.0000   1.0000
     1.0000   1.0000   1.0000   1.0000   1.0000   1.0000   1.0000   1.0000
     1.0000   1.0000   1.0000   1.0000   1.0000   1.0000   1.0000   1.0000
     1.0000   1.0000   1.0000   1.0000   1.0000   1.0000   1.0000   1.0000
     1.0000   1.0000   1.0000   1.0000   1.0000   1.0000   1.0000   1.0000
     1.0000   1.0000   1.0000   1.0000   1.0000   1.0000   1.0000   1.0000
     1.0000   1.0000   1.0000   1.0000   1.0000   1.0000   1.0000   1.0000
     1.0000   1.0000   1.0000   1.0000   1.0000   1.0000   1.0000   1.0000
     1.0000   1.0000   1.0000   1.0000   1.0000   1.0000   1.0000   1.0000
     1.0000   1.0000   1.0000   1.0000   1.0000   1.0000   1.0000   1.0000
     1.0000   1.0000   1.0000   1.0000   1.0000   1.0000   1.0000   1.0000
     1.0000   1.0000   1.0000   1.0000   1.0000   1.0000   1.0000   1.0000
     1.0000   1.0000   1.0000   1.0000   1.0000   1.0000   1.0000   1.0000
     1.0000   1.0000   1.0000   1.0000   1.0000   1.0000   1.0000   1.0000
     1.0000   1.0000   1.0000   1.0000   1.0000   1.0000   1.0000   1.0000
     1.0000   1.0000   1.0000   1.0000   1.0000   1.0000   1.0000   1.0000
     1.0000   1.0000   1.0000   1.0000   1.0000   1.0000   1.0000   1.0000
     1.0000   1.0000   1.0000   1.0000   1.0000   1.0000   1.0000   1.0000
     1.0000   1.0000   1.0000   1.0000   1.0000   1.0000   1.0000   1.0000
     1.0000   1.0000   1.0000   1.0000   1.0000   1.0000   1.0000   1.0000
     1.0000   1.0000   1.0000   1.0000   1.0000   1.0000   1.0000   1.0000
     1.0000   1.0000   1.0000   1.0000   1.0000   1.0000   1.0000   1.0000
     1.0000   1.0000   1.0000   1.0000   1.0000   1.0000   1.0000   1.0000
     1.0000   1.0000   1.0000   1.0000   1.0000   1.0000   1.0000   1.0000
     1.0000   1.0000   1.0000   1.0000   1.0000   1.0000   1.0000   1.0000
     1.0000   1.0000   1.0000   1.0000   1.0000   1.0000   1.0000   1.0000
     1.0000   1.0000   1.0000   1.0000   1.0000   1.0000   1.0000   1.0000
     1.0000   1.0000   1.0000   1.0000   1.0000   1.0000   1.0000   1.0000
     1.0000   1.0000   1.0000   1.0000   1.0000   1.0000   1.0000   1.0000
     1.0000   1.0000   1.0000   1.0000   1.0000   1.0000   1.0000   1.0000
     1.0000   1.0000   1.0000   1.0000   1.0000   1.0000   1.0000   1.0000
     1.0000   1.0000   1.0000   1.0000   1.0000   1.0000   1.0000   1.0000
     1.0000   1.0000   1.0000   1.0000   1.0000   1.0000   1.0000   1.0000
     1.0000   1.0000   1.0000   1.0000   1.0000   1.0000   1.0000   1.0000
     1.0000   1.0000   1.0000   1.0000   1.0000   0.9999   0.9999   0.9999
     0.9998   0.9998   0.9998   0.9997   0.9997   0.9997   0.9997   0.9996
     0.9995   0.9995   0.9995   0.9993   0.9989   0.9985   0.9970   0.9967
     0.9963   0.9949   0.9946   0.9942   0.9927   0.9913   0.9908   0.9904
     0.9898   0.9891   0.9828   0.9800   0.9717   0.9703   0.9680   0.9488
     0.9257   0.9076   0.9010   0.8944   0.8666   0.8571   0.7504   0.6485
     0.6101   0.5107   0.1705   0.0593   0.0240   0.0033   0.0004   0.0002
     0.0001   0.0001   0.0001   0.0000   0.0000   0.0000   0.0000   0.0000
     0.0000   0.0000   0.0000   0.0000   0.0000   0.0000   0.0000   0.0000
     0.0000   0.0000   0.0000   0.0000   0.0000   0.0000   0.0000   0.0000
     0.0000   0.0000   0.0000   0.0000   0.0000   0.0000   0.0000   0.0000
     0.0000   0.0000   0.0000   0.0000   0.0000   0.0000   0.0000   0.0000
     0.0000   0.0000   0.0000   0.0000   0.0000   0.0000   0.0000   0.0000
     0.0000   0.0000   0.0000   0.0000   0.0000   0.0000   0.0000   0.0000
     0.0000   0.0000   0.0000   0.0000   0.0000   0.0000   0.0000   0.0000
     0.0000   0.0000   0.0000   0.0000   0.0000   0.0000   0.0000   0.0000

          k =-0.2500 0.1443-0.5700 (100576 PWs)   bands (ev):

   -71.1988 -71.1924 -71.1921 -71.1809 -71.1805 -71.1795 -71.1793 -71.1791
   -71.1790 -71.1759 -71.1758 -71.1741 -71.1739 -71.1720 -71.1719 -71.1717
   -71.1714 -71.1713 -71.1712 -71.1711 -71.1710 -71.1707 -71.1705 -71.1688
   -71.1676 -71.1674 -71.1499 -71.1497 -71.1494 -71.1492 -71.1348 -71.1347
   -71.1343 -71.1341 -71.1333 -71.1332 -70.0716 -70.0715 -70.0189 -70.0188
   -70.0182 -70.0181 -70.0106 -70.0105 -70.0101 -70.0100 -70.0098 -70.0097
   -70.0060 -70.0057 -70.0056 -70.0012 -70.0003 -69.9988 -69.9987 -69.9984
   -69.9983 -69.9983 -69.9982 -69.9979 -69.9964 -69.9962 -69.9960 -69.9959
   -69.9843 -69.9796 -69.9789 -69.9747 -69.9683 -69.9682 -69.9247 -69.8930
   -37.3421 -37.3266 -37.3260 -37.3137 -37.3133 -37.3120 -37.3117 -37.3111
   -37.3105 -37.3095 -37.3081 -37.3077 -37.3071 -37.3064 -37.3060 -37.3053
   -37.3052 -37.3049 -37.3037 -37.3009 -37.3006 -37.3003 -37.3001 -37.2997
   -37.2974 -37.2969 -37.2826 -37.2819 -37.2789 -37.2784 -37.2665 -37.2657
   -37.2621 -37.2616 -37.2548 -37.2522 -37.2378 -37.2348 -37.2339 -37.2296
   -37.2257 -37.2239 -37.2233 -37.2231 -37.2229 -37.2227 -37.2226 -37.2201
   -37.2190 -37.2170 -37.2167 -37.2162 -37.2161 -37.2147 -37.2146 -37.2146
   -37.2143 -37.2139 -37.2127 -37.2124 -37.2116 -37.2103 -37.2101 -37.2100
   -37.2091 -37.2088 -37.2084 -37.2076 -37.2059 -37.2054 -37.2050 -37.2035
   -37.2027 -37.2023 -37.2019 -37.2019 -37.2011 -37.2008 -37.2002 -37.1994
   -37.1988 -37.1983 -37.1969 -37.1954 -37.1945 -37.1940 -37.1937 -37.1930
   -37.1902 -37.1899 -37.1885 -37.1883 -37.1832 -37.1826 -37.1809 -37.1806
   -37.1799 -37.1794 -37.1778 -37.1772 -37.1770 -37.1764 -37.1693 -37.1684
   -37.1591 -37.1586 -37.1586 -37.1577 -36.3315 -36.3310 -36.3011 -36.3006
   -36.2993 -36.2989 -36.2989 -36.2982 -36.2977 -36.2972 -36.2783 -36.2723
   -36.2392 -36.2389 -36.2196 -36.2194 -36.2169 -36.2164 -36.2110 -36.2108
   -36.2108 -36.2104 -36.2102 -36.2100 -36.2082 -36.2082 -36.2079 -36.2075
   -36.2074 -36.1998 -36.1991 -36.1939 -36.1936 -36.1784 -36.1675 -36.1079
   -36.1076 -36.1075 -36.0959 -36.0925 -36.0735 -36.0712 -36.0708 -36.0703
   -36.0655 -36.0653 -36.0603 -36.0599 -36.0598 -36.0592 -36.0590 -36.0588
   -36.0559 -36.0556 -36.0556 -36.0550 -36.0547 -36.0546 -36.0516 -36.0508
   -36.0468 -36.0376 -36.0370 -36.0356 -36.0352 -36.0334 -36.0328 -36.0319
   -36.0278 -36.0266 -36.0264 -36.0259 -36.0257 -36.0254 -36.0252 -36.0245
   -36.0244 -36.0233 -36.0228 -36.0201 -36.0192 -36.0188 -36.0185 -36.0166
   -36.0157 -36.0149 -36.0137 -36.0133 -36.0118 -36.0112 -36.0111 -36.0109
   -36.0107 -36.0106 -36.0105 -36.0101 -36.0090 -36.0086 -35.9905 -35.9899
   -35.9821 -35.9786 -35.9678 -35.9673 -35.9669 -35.9564 -35.9422 -35.9011
     3.6108   3.6622   4.1558   4.2014   4.3936   4.4397   4.4402   4.4422
     4.8206   4.8751   4.8783   4.8788   5.0473   5.0475   5.2007   5.4377
     5.4390   5.4472   5.4494   5.4953   5.4991   5.5210   5.5279   5.5613
     5.5692   5.5771   5.5832   5.5840   5.5971   5.6213   5.9103   5.9157
     5.9369   5.9517   6.0270   6.2851   8.5918   9.6834   9.7090   9.7954
     9.8297   9.8320   9.8476   9.8719   9.8728   9.8805   9.8880   9.8933
     9.8935  10.1852  10.3957  10.4213  10.4508  10.4819  10.5143  10.5159
    10.5698  10.5731  10.5787  10.5799  10.5894  10.5910  10.7827  10.8645
    10.9252  10.9351  10.9410  11.0775  11.1785  11.2713  11.3261  11.3598
    11.3657  11.4279  11.4586  11.4799  11.5345  11.5756  11.6496  11.7731
    11.7762  11.8010  11.8125  11.8197  11.8525  11.8565  11.8590  11.9441
    12.0348  12.0618  12.0638  12.0648  12.0860  12.0883  12.0907  12.1180
    12.1519  12.1628  12.1783  12.1835  12.1913  12.1962  12.2017  12.2258
    12.2406  12.2461  12.2533  12.2568  12.2597  12.2654  12.2659  12.2709
    12.2800  12.2897  12.2917  12.2936  12.3179  12.3301  12.3477  12.3549
    12.3673  12.3675  12.3727  12.3752  12.3873  12.5780  12.5919  12.5981
    12.6099  12.6375  12.6392  12.6458  12.7005  12.7106  12.7344  12.7374
    12.8188  12.8379  13.0673  13.0699  13.0876  13.0928  13.1200  13.1259
    13.1594  13.5075  13.5272  13.6037  13.6224  13.6511  13.6600  13.6654
    13.6664  13.6684  13.6698  13.6793  13.7040  13.7236  13.7514  13.7744
    13.7772  13.7804  13.7856  13.7886  13.7932  13.8052  13.8116  13.8150
    13.8388  13.8628  13.8696  13.8727  13.8731  13.8783  13.8793  13.8848
    13.8853  13.8892  13.9359  13.9397  13.9465  13.9466  13.9473  13.9494
    13.9534  13.9575  13.9629  13.9644  13.9743  13.9870  13.9926  13.9954
    14.0153  14.0249  14.0415  14.0540  14.0620  14.0804  14.0868  14.0887
    14.0981  14.1073  14.1123  14.1221  14.1287  14.1675  14.1743  14.2072
    14.2129  14.2286  14.2750  14.2760  14.2768  14.2792  14.3140  14.3253
    14.3284  14.3297  14.3396  14.3485  14.4435  14.4528  14.4573  14.4639
    14.5252  14.5255  14.5392  14.5451  14.6915  14.6945  14.8212  14.8362
    14.8558  14.8644  14.8795  14.8848  14.8908  14.9017  14.9034  14.9088
    14.9237  14.9306  14.9601  14.9739  14.9754  14.9853  14.9871  15.0065
    15.0075  15.0122  15.0136  15.0152  15.0237  15.0252  15.0344  15.0388
    15.0499  15.0551  15.0572  15.0623  15.0655  15.0725  15.0739  15.0789
    15.0818  15.1175  15.1213  15.1213  15.1251  15.1275  15.1290  15.1333
    15.1402  15.1431  15.1483  15.1657  15.1754  15.1942  15.1965  15.2094
    15.2198  15.2316  15.2499  15.2608  15.2642  15.2671  15.2698  15.2732
    15.2765  15.2782  15.3536  15.3594  15.3836  15.3867  15.4165  15.4231
    15.4389  15.4439  15.4515  15.4553  15.4584  15.4773  15.5062  15.5085
    15.5104  15.5237  15.5425  15.5428  15.5429  15.5466  15.5471  15.5499
    15.5617  15.5719  15.5885  15.5896  15.5988  15.6453  15.6491  15.6495
    15.6556  15.6634  15.6887  15.6974  15.7020  15.7047  15.7090  15.7153
    15.8042  15.8303  15.8388  15.8487  15.8610  15.8622  15.8639  15.8667
    15.8714  15.8869  15.8927  15.9106  15.9122  15.9171  15.9194  15.9199
    15.9218  15.9263  15.9298  15.9504  15.9553  15.9646  15.9756  15.9767
    15.9828  15.9906  15.9949  16.0047  16.0087  16.0145  16.0155  16.0239
    16.0502  16.0736  16.0766  16.0895  16.0936  16.0964  16.1101  16.1169
    16.1227  16.1268  16.1315  16.1381  16.1423  16.2984  16.3107  16.3158
    16.3310  16.3332  16.3341  16.3411  16.3772  16.3789  16.3819  16.3855
    16.3938  16.3999  16.4606  16.4688  16.4695  16.4898  16.4922  16.5011
    16.5026  16.5227  16.5328  16.5414  16.5527  16.5562  16.5595  16.5602
    16.5623  16.5653  16.5661  16.5949  16.6337  16.6347  16.6635  16.6725
    16.6772  16.7066  16.7106  16.7118  16.7183  16.7207  16.7587  16.7589
    16.7889  16.7971  16.8196  16.8560  16.8938  16.9405  16.9657  16.9749
    16.9873  16.9912  16.9943  16.9968  17.1607  17.1946  17.2015  17.2064
    17.2153  17.2186  17.4321  17.4376  17.6216  17.6829  17.6834  17.8057
    17.8396  17.8897  17.9013  17.9041  17.9175  17.9181  17.9298  18.1486
    18.1504  18.1603  18.2620  18.2918  18.3034  18.3038  18.3128  18.3924
    18.3987  18.5434  18.5662  18.5828  18.5907  18.6111  18.6161  18.6223
    18.6229  18.6343  18.6408  18.6813  18.7760  18.9044  19.0014  19.0282
    19.0326  19.0346  19.0366  19.1213  19.1323  19.1358  19.2021  19.2112
    19.2213  19.2518  19.2578  19.3528  19.3592  19.3667  19.3669  19.4030
    19.4382  19.4926  19.5023  19.5112  19.5114  19.5222  19.5227  19.5447
    19.6108  19.6132  19.8755  19.9015  20.2639  20.2786  20.3111  20.3402
    20.4109  20.5210  20.6580  20.6887  20.9660  21.1095  21.2833  21.8785

     occupation numbers 
     1.0000   1.0000   1.0000   1.0000   1.0000   1.0000   1.0000   1.0000
     1.0000   1.0000   1.0000   1.0000   1.0000   1.0000   1.0000   1.0000
     1.0000   1.0000   1.0000   1.0000   1.0000   1.0000   1.0000   1.0000
     1.0000   1.0000   1.0000   1.0000   1.0000   1.0000   1.0000   1.0000
     1.0000   1.0000   1.0000   1.0000   1.0000   1.0000   1.0000   1.0000
     1.0000   1.0000   1.0000   1.0000   1.0000   1.0000   1.0000   1.0000
     1.0000   1.0000   1.0000   1.0000   1.0000   1.0000   1.0000   1.0000
     1.0000   1.0000   1.0000   1.0000   1.0000   1.0000   1.0000   1.0000
     1.0000   1.0000   1.0000   1.0000   1.0000   1.0000   1.0000   1.0000
     1.0000   1.0000   1.0000   1.0000   1.0000   1.0000   1.0000   1.0000
     1.0000   1.0000   1.0000   1.0000   1.0000   1.0000   1.0000   1.0000
     1.0000   1.0000   1.0000   1.0000   1.0000   1.0000   1.0000   1.0000
     1.0000   1.0000   1.0000   1.0000   1.0000   1.0000   1.0000   1.0000
     1.0000   1.0000   1.0000   1.0000   1.0000   1.0000   1.0000   1.0000
     1.0000   1.0000   1.0000   1.0000   1.0000   1.0000   1.0000   1.0000
     1.0000   1.0000   1.0000   1.0000   1.0000   1.0000   1.0000   1.0000
     1.0000   1.0000   1.0000   1.0000   1.0000   1.0000   1.0000   1.0000
     1.0000   1.0000   1.0000   1.0000   1.0000   1.0000   1.0000   1.0000
     1.0000   1.0000   1.0000   1.0000   1.0000   1.0000   1.0000   1.0000
     1.0000   1.0000   1.0000   1.0000   1.0000   1.0000   1.0000   1.0000
     1.0000   1.0000   1.0000   1.0000   1.0000   1.0000   1.0000   1.0000
     1.0000   1.0000   1.0000   1.0000   1.0000   1.0000   1.0000   1.0000
     1.0000   1.0000   1.0000   1.0000   1.0000   1.0000   1.0000   1.0000
     1.0000   1.0000   1.0000   1.0000   1.0000   1.0000   1.0000   1.0000
     1.0000   1.0000   1.0000   1.0000   1.0000   1.0000   1.0000   1.0000
     1.0000   1.0000   1.0000   1.0000   1.0000   1.0000   1.0000   1.0000
     1.0000   1.0000   1.0000   1.0000   1.0000   1.0000   1.0000   1.0000
     1.0000   1.0000   1.0000   1.0000   1.0000   1.0000   1.0000   1.0000
     1.0000   1.0000   1.0000   1.0000   1.0000   1.0000   1.0000   1.0000
     1.0000   1.0000   1.0000   1.0000   1.0000   1.0000   1.0000   1.0000
     1.0000   1.0000   1.0000   1.0000   1.0000   1.0000   1.0000   1.0000
     1.0000   1.0000   1.0000   1.0000   1.0000   1.0000   1.0000   1.0000
     1.0000   1.0000   1.0000   1.0000   1.0000   1.0000   1.0000   1.0000
     1.0000   1.0000   1.0000   1.0000   1.0000   1.0000   1.0000   1.0000
     1.0000   1.0000   1.0000   1.0000   1.0000   1.0000   1.0000   1.0000
     1.0000   1.0000   1.0000   1.0000   1.0000   1.0000   1.0000   1.0000
     1.0000   1.0000   1.0000   1.0000   1.0000   1.0000   1.0000   1.0000
     1.0000   1.0000   1.0000   1.0000   1.0000   1.0000   1.0000   1.0000
     1.0000   1.0000   1.0000   1.0000   1.0000   1.0000   1.0000   1.0000
     1.0000   1.0000   1.0000   1.0000   1.0000   1.0000   1.0000   1.0000
     1.0000   1.0000   1.0000   1.0000   1.0000   1.0000   1.0000   1.0000
     1.0000   1.0000   1.0000   1.0000   1.0000   1.0000   1.0000   1.0000
     1.0000   1.0000   1.0000   1.0000   1.0000   1.0000   1.0000   1.0000
     1.0000   1.0000   1.0000   1.0000   1.0000   1.0000   1.0000   1.0000
     1.0000   1.0000   1.0000   1.0000   1.0000   1.0000   1.0000   1.0000
     1.0000   1.0000   1.0000   1.0000   1.0000   1.0000   1.0000   1.0000
     1.0000   1.0000   1.0000   1.0000   1.0000   1.0000   1.0000   1.0000
     1.0000   1.0000   1.0000   1.0000   1.0000   1.0000   1.0000   1.0000
     1.0000   1.0000   1.0000   1.0000   1.0000   1.0000   1.0000   1.0000
     1.0000   1.0000   1.0000   1.0000   1.0000   1.0000   1.0000   1.0000
     1.0000   1.0000   1.0000   1.0000   1.0000   1.0000   1.0000   1.0000
     1.0000   1.0000   1.0000   1.0000   1.0000   1.0000   1.0000   1.0000
     1.0000   1.0000   1.0000   1.0000   1.0000   1.0000   1.0000   1.0000
     1.0000   1.0000   1.0000   1.0000   1.0000   1.0000   1.0000   1.0000
     1.0000   1.0000   1.0000   1.0000   1.0000   1.0000   1.0000   1.0000
     1.0000   1.0000   1.0000   1.0000   1.0000   1.0000   1.0000   1.0000
     1.0000   1.0000   1.0000   1.0000   1.0000   1.0000   1.0000   1.0000
     1.0000   1.0000   1.0000   1.0000   1.0000   1.0000   1.0000   1.0000
     1.0000   1.0000   1.0000   1.0000   1.0000   1.0000   1.0000   1.0000
     1.0000   1.0000   1.0000   1.0000   1.0000   1.0000   1.0000   1.0000
     1.0000   1.0000   1.0000   1.0000   1.0000   1.0000   1.0000   1.0000
     1.0000   1.0000   1.0000   1.0000   1.0000   1.0000   1.0000   1.0000
     1.0000   1.0000   1.0000   1.0000   1.0000   1.0000   1.0000   1.0000
     1.0000   1.0000   1.0000   1.0000   1.0000   1.0000   1.0000   1.0000
     1.0000   1.0000   1.0000   1.0000   1.0000   1.0000   1.0000   1.0000
     1.0000   1.0000   1.0000   1.0000   1.0000   1.0000   1.0000   1.0000
     1.0000   1.0000   1.0000   1.0000   1.0000   1.0000   1.0000   1.0000
     1.0000   1.0000   1.0000   1.0000   1.0000   1.0000   1.0000   1.0000
     1.0000   1.0000   1.0000   1.0000   1.0000   1.0000   1.0000   1.0000
     1.0000   1.0000   1.0000   1.0000   1.0000   1.0000   1.0000   1.0000
     1.0000   1.0000   1.0000   1.0000   1.0000   1.0000   1.0000   1.0000
     1.0000   1.0000   1.0000   1.0000   1.0000   1.0000   1.0000   1.0000
     1.0000   1.0000   1.0000   1.0000   1.0000   1.0000   1.0000   1.0000
     1.0000   1.0000   1.0000   1.0000   1.0000   1.0000   1.0000   1.0000
     1.0000   1.0000   1.0000   1.0000   1.0000   1.0000   1.0000   1.0000
     1.0000   1.0000   1.0000   1.0000   1.0000   1.0000   1.0000   1.0000
     1.0000   1.0000   1.0000   1.0000   1.0000   1.0000   1.0000   1.0000
     1.0000   1.0000   1.0000   1.0000   1.0000   1.0000   1.0000   1.0000
     1.0000   1.0000   1.0000   1.0000   1.0000   1.0000   1.0000   1.0000
     1.0000   1.0000   1.0000   1.0000   1.0000   1.0000   1.0000   1.0000
     1.0000   1.0000   1.0000   1.0000   1.0000   1.0000   1.0000   1.0000
     1.0000   1.0000   1.0000   1.0000   1.0000   1.0000   1.0000   1.0000
     1.0000   1.0000   1.0000   1.0000   1.0000   1.0000   1.0000   1.0000
     1.0000   1.0000   1.0000   1.0000   1.0000   1.0000   1.0000   1.0000
     1.0000   1.0000   1.0000   0.9999   0.9999   0.9999   0.9999   0.9999
     0.9999   0.9998   0.9998   0.9998   0.9997   0.9997   0.9997   0.9996
     0.9996   0.9996   0.9996   0.9993   0.9987   0.9987   0.9978   0.9975
     0.9973   0.9957   0.9954   0.9953   0.9949   0.9947   0.9908   0.9908
     0.9861   0.9845   0.9793   0.9679   0.9510   0.9210   0.8999   0.8912
     0.8787   0.8746   0.8712   0.8685   0.6054   0.5364   0.5222   0.5119
     0.4935   0.4866   0.1265   0.1207   0.0167   0.0072   0.0072   0.0010
     0.0006   0.0002   0.0002   0.0002   0.0001   0.0001   0.0001   0.0000
     0.0000   0.0000   0.0000   0.0000   0.0000   0.0000   0.0000   0.0000
     0.0000   0.0000   0.0000   0.0000   0.0000   0.0000   0.0000   0.0000
     0.0000   0.0000   0.0000   0.0000   0.0000   0.0000   0.0000   0.0000
     0.0000   0.0000   0.0000   0.0000   0.0000   0.0000   0.0000   0.0000
     0.0000   0.0000   0.0000   0.0000   0.0000   0.0000   0.0000   0.0000
     0.0000   0.0000   0.0000   0.0000   0.0000   0.0000   0.0000   0.0000
     0.0000   0.0000   0.0000   0.0000   0.0000   0.0000   0.0000   0.0000
     0.0000   0.0000   0.0000   0.0000   0.0000   0.0000   0.0000   0.0000

          k = 0.5000-0.2887 0.0000 (100622 PWs)   bands (ev):

   -71.1988 -71.1924 -71.1921 -71.1809 -71.1805 -71.1795 -71.1793 -71.1791
   -71.1789 -71.1759 -71.1758 -71.1741 -71.1739 -71.1720 -71.1718 -71.1717
   -71.1714 -71.1713 -71.1712 -71.1711 -71.1710 -71.1707 -71.1705 -71.1688
   -71.1676 -71.1674 -71.1499 -71.1497 -71.1494 -71.1492 -71.1348 -71.1347
   -71.1343 -71.1341 -71.1333 -71.1332 -70.0716 -70.0715 -70.0189 -70.0188
   -70.0182 -70.0181 -70.0106 -70.0105 -70.0101 -70.0100 -70.0098 -70.0097
   -70.0060 -70.0057 -70.0056 -70.0012 -70.0003 -69.9988 -69.9987 -69.9984
   -69.9983 -69.9983 -69.9982 -69.9979 -69.9964 -69.9962 -69.9960 -69.9959
   -69.9843 -69.9796 -69.9789 -69.9747 -69.9683 -69.9682 -69.9247 -69.8930
   -37.3421 -37.3266 -37.3260 -37.3123 -37.3118 -37.3117 -37.3112 -37.3112
   -37.3105 -37.3101 -37.3094 -37.3083 -37.3082 -37.3070 -37.3060 -37.3051
   -37.3048 -37.3044 -37.3041 -37.3028 -37.3026 -37.3001 -37.2994 -37.2992
   -37.2964 -37.2959 -37.2830 -37.2821 -37.2787 -37.2781 -37.2668 -37.2659
   -37.2620 -37.2614 -37.2551 -37.2520 -37.2378 -37.2348 -37.2338 -37.2290
   -37.2252 -37.2245 -37.2234 -37.2234 -37.2231 -37.2227 -37.2226 -37.2206
   -37.2179 -37.2177 -37.2160 -37.2157 -37.2156 -37.2155 -37.2152 -37.2142
   -37.2134 -37.2134 -37.2130 -37.2128 -37.2125 -37.2103 -37.2103 -37.2101
   -37.2089 -37.2088 -37.2081 -37.2080 -37.2078 -37.2069 -37.2034 -37.2034
   -37.2026 -37.2024 -37.2013 -37.2010 -37.2009 -37.2001 -37.2000 -37.1996
   -37.1992 -37.1991 -37.1963 -37.1959 -37.1943 -37.1939 -37.1936 -37.1935
   -37.1897 -37.1895 -37.1889 -37.1882 -37.1831 -37.1826 -37.1808 -37.1803
   -37.1801 -37.1799 -37.1778 -37.1772 -37.1772 -37.1765 -37.1692 -37.1685
   -37.1592 -37.1586 -37.1586 -37.1578 -36.3315 -36.3310 -36.3011 -36.3007
   -36.2992 -36.2989 -36.2988 -36.2983 -36.2977 -36.2972 -36.2783 -36.2723
   -36.2392 -36.2390 -36.2196 -36.2194 -36.2170 -36.2164 -36.2110 -36.2107
   -36.2106 -36.2104 -36.2103 -36.2102 -36.2083 -36.2082 -36.2079 -36.2076
   -36.2074 -36.1999 -36.1991 -36.1939 -36.1936 -36.1784 -36.1675 -36.1079
   -36.1076 -36.1076 -36.0958 -36.0926 -36.0735 -36.0713 -36.0706 -36.0704
   -36.0655 -36.0653 -36.0602 -36.0599 -36.0598 -36.0592 -36.0591 -36.0589
   -36.0559 -36.0556 -36.0555 -36.0551 -36.0547 -36.0546 -36.0516 -36.0508
   -36.0468 -36.0376 -36.0367 -36.0356 -36.0352 -36.0336 -36.0324 -36.0317
   -36.0283 -36.0264 -36.0264 -36.0260 -36.0258 -36.0255 -36.0252 -36.0246
   -36.0238 -36.0232 -36.0228 -36.0220 -36.0192 -36.0185 -36.0180 -36.0157
   -36.0149 -36.0145 -36.0140 -36.0136 -36.0134 -36.0120 -36.0112 -36.0111
   -36.0108 -36.0105 -36.0102 -36.0099 -36.0087 -36.0081 -35.9905 -35.9899
   -35.9819 -35.9788 -35.9678 -35.9673 -35.9669 -35.9564 -35.9422 -35.9011
     3.5430   3.5998   4.1007   4.1349   4.5197   4.6123   4.6162   4.6193
     4.8757   4.9082   4.9824   5.0156   5.0176   5.0239   5.0796   5.0969
     5.2182   5.2278   5.4553   5.4976   5.5028   5.5082   5.5930   5.5945
     5.6433   5.6449   5.6471   5.6496   5.6919   5.6951   5.7058   5.7113
     6.0034   6.0103   6.0126   6.0164   8.6124   9.8031   9.8250   9.8955
     9.9440   9.9903   9.9985  10.0040  10.1127  10.1888  10.1941  10.2130
    10.2550  10.3230  10.3281  10.3306  10.4672  10.5149  10.5178  10.5219
    10.5235  10.5281  10.5313  10.5456  10.6323  10.6343  10.6407  10.6448
    10.8623  10.8815  10.9699  10.9863  10.9888  10.9939  11.0330  11.1905
    11.1950  11.2009  11.2049  11.2996  11.3691  11.5355  11.5433  11.5435
    11.5739  11.5785  11.7216  11.7402  11.7475  11.7497  11.7509  11.7527
    11.7548  11.7588  11.9364  11.9422  11.9483  11.9519  11.9575  12.0814
    12.0817  12.0867  12.0965  12.0985  12.1405  12.1461  12.1472  12.1500
    12.2744  12.2780  12.2982  12.3060  12.3118  12.3122  12.3142  12.3767
    12.4206  12.4229  12.4742  12.5049  12.5087  12.5104  12.5204  12.5253
    12.5259  12.5271  12.5395  12.5502  12.5558  12.5573  12.6128  12.6144
    12.6169  12.6250  12.7496  12.7534  12.7845  12.7965  12.7976  12.8083
    12.9527  12.9621  13.0343  13.0543  13.0903  13.1892  13.1966  13.3198
    13.3669  13.5919  13.5965  13.6033  13.6037  13.6421  13.6434  13.6436
    13.6467  13.6590  13.6595  13.6720  13.6830  13.6982  13.7250  13.7280
    13.7366  13.7461  13.7504  13.7763  13.7991  13.8139  13.8262  13.8322
    13.8666  13.8686  13.8686  13.8769  13.8807  13.8899  13.9061  13.9104
    13.9108  13.9120  13.9145  13.9171  13.9372  13.9392  13.9429  13.9432
    13.9473  13.9738  13.9808  13.9826  14.0252  14.0495  14.0572  14.0582
    14.0605  14.0635  14.0762  14.0852  14.0906  14.0910  14.0911  14.0968
    14.0991  14.0997  14.1045  14.1079  14.1578  14.1853  14.2144  14.2177
    14.2208  14.2293  14.2301  14.2303  14.2390  14.2418  14.2629  14.2633
    14.2676  14.2717  14.2850  14.2852  14.2854  14.2897  14.3616  14.3714
    14.6189  14.6237  14.6490  14.6600  14.7043  14.7474  14.7558  14.7646
    14.7684  14.7762  14.7839  14.7948  14.8599  14.8653  14.8731  14.8827
    14.8888  14.8921  14.8957  14.8975  14.9024  14.9243  14.9811  14.9959
    14.9972  15.0006  15.0012  15.0042  15.0065  15.0090  15.0365  15.0370
    15.0599  15.0617  15.0622  15.0650  15.0859  15.0876  15.0941  15.0965
    15.1220  15.1316  15.1356  15.1508  15.1605  15.1699  15.1731  15.1746
    15.1854  15.1876  15.2168  15.2187  15.2208  15.2328  15.2343  15.2473
    15.2507  15.2549  15.2657  15.2686  15.2754  15.2778  15.3184  15.3245
    15.3529  15.3533  15.3566  15.3573  15.3576  15.3582  15.3729  15.3746
    15.3748  15.3888  15.4138  15.4189  15.4330  15.4434  15.4467  15.4533
    15.4698  15.4747  15.4920  15.5125  15.5654  15.5713  15.5977  15.6058
    15.6080  15.6113  15.6335  15.6372  15.6400  15.6500  15.6523  15.6613
    15.7082  15.7147  15.7225  15.7279  15.7343  15.7346  15.7370  15.7399
    15.7520  15.7593  15.7610  15.7635  15.7674  15.7700  15.8434  15.8464
    15.8471  15.8491  15.8505  15.8515  15.8578  15.8926  15.9322  15.9414
    15.9608  15.9653  15.9661  15.9734  15.9761  15.9783  15.9793  15.9911
    16.0490  16.0696  16.0725  16.0811  16.1002  16.1085  16.1092  16.1130
    16.1140  16.1308  16.1344  16.1351  16.1428  16.1477  16.1674  16.1754
    16.1818  16.1838  16.1846  16.1954  16.2547  16.2704  16.2719  16.2762
    16.2846  16.2907  16.2939  16.2963  16.3014  16.3060  16.3346  16.3434
    16.3798  16.3972  16.4009  16.4015  16.4034  16.4060  16.5322  16.5477
    16.5485  16.5495  16.5496  16.5507  16.5612  16.5675  16.5712  16.5758
    16.5935  16.5961  16.5984  16.6003  16.6028  16.6139  16.6658  16.6692
    16.6834  16.6984  16.7068  16.7089  16.7125  16.7175  16.7180  16.7229
    16.7879  16.7945  16.8051  16.8087  16.8475  16.8539  16.8592  16.8643
    16.8650  16.8689  16.8731  16.8739  16.9038  16.9132  16.9169  16.9208
    17.4315  17.4367  17.6827  17.6903  17.7111  17.7511  17.7598  17.7602
    17.9323  17.9423  17.9530  17.9599  17.9815  17.9832  17.9875  17.9968
    18.0268  18.0514  18.0568  18.0630  18.3496  18.3732  18.3753  18.3869
    18.3884  18.4400  18.4455  18.4461  18.4495  18.4538  18.4554  18.4608
    18.6490  18.6592  18.6596  18.6624  18.9946  19.0234  19.1042  19.1107
    19.1256  19.1284  19.1680  19.2411  19.2419  19.2596  19.3323  19.3391
    19.3480  19.3524  19.4811  19.4926  19.4982  19.5131  19.5403  19.5415
    19.5465  19.5582  19.6249  19.6359  19.6433  19.6505  19.6551  19.6644
    20.0454  20.0492  20.0695  20.0753  20.0887  20.0937  20.6174  20.6292
    20.6688  20.9595  20.9967  21.0028  21.0852  21.2505  21.2620  21.2856

     occupation numbers 
     1.0000   1.0000   1.0000   1.0000   1.0000   1.0000   1.0000   1.0000
     1.0000   1.0000   1.0000   1.0000   1.0000   1.0000   1.0000   1.0000
     1.0000   1.0000   1.0000   1.0000   1.0000   1.0000   1.0000   1.0000
     1.0000   1.0000   1.0000   1.0000   1.0000   1.0000   1.0000   1.0000
     1.0000   1.0000   1.0000   1.0000   1.0000   1.0000   1.0000   1.0000
     1.0000   1.0000   1.0000   1.0000   1.0000   1.0000   1.0000   1.0000
     1.0000   1.0000   1.0000   1.0000   1.0000   1.0000   1.0000   1.0000
     1.0000   1.0000   1.0000   1.0000   1.0000   1.0000   1.0000   1.0000
     1.0000   1.0000   1.0000   1.0000   1.0000   1.0000   1.0000   1.0000
     1.0000   1.0000   1.0000   1.0000   1.0000   1.0000   1.0000   1.0000
     1.0000   1.0000   1.0000   1.0000   1.0000   1.0000   1.0000   1.0000
     1.0000   1.0000   1.0000   1.0000   1.0000   1.0000   1.0000   1.0000
     1.0000   1.0000   1.0000   1.0000   1.0000   1.0000   1.0000   1.0000
     1.0000   1.0000   1.0000   1.0000   1.0000   1.0000   1.0000   1.0000
     1.0000   1.0000   1.0000   1.0000   1.0000   1.0000   1.0000   1.0000
     1.0000   1.0000   1.0000   1.0000   1.0000   1.0000   1.0000   1.0000
     1.0000   1.0000   1.0000   1.0000   1.0000   1.0000   1.0000   1.0000
     1.0000   1.0000   1.0000   1.0000   1.0000   1.0000   1.0000   1.0000
     1.0000   1.0000   1.0000   1.0000   1.0000   1.0000   1.0000   1.0000
     1.0000   1.0000   1.0000   1.0000   1.0000   1.0000   1.0000   1.0000
     1.0000   1.0000   1.0000   1.0000   1.0000   1.0000   1.0000   1.0000
     1.0000   1.0000   1.0000   1.0000   1.0000   1.0000   1.0000   1.0000
     1.0000   1.0000   1.0000   1.0000   1.0000   1.0000   1.0000   1.0000
     1.0000   1.0000   1.0000   1.0000   1.0000   1.0000   1.0000   1.0000
     1.0000   1.0000   1.0000   1.0000   1.0000   1.0000   1.0000   1.0000
     1.0000   1.0000   1.0000   1.0000   1.0000   1.0000   1.0000   1.0000
     1.0000   1.0000   1.0000   1.0000   1.0000   1.0000   1.0000   1.0000
     1.0000   1.0000   1.0000   1.0000   1.0000   1.0000   1.0000   1.0000
     1.0000   1.0000   1.0000   1.0000   1.0000   1.0000   1.0000   1.0000
     1.0000   1.0000   1.0000   1.0000   1.0000   1.0000   1.0000   1.0000
     1.0000   1.0000   1.0000   1.0000   1.0000   1.0000   1.0000   1.0000
     1.0000   1.0000   1.0000   1.0000   1.0000   1.0000   1.0000   1.0000
     1.0000   1.0000   1.0000   1.0000   1.0000   1.0000   1.0000   1.0000
     1.0000   1.0000   1.0000   1.0000   1.0000   1.0000   1.0000   1.0000
     1.0000   1.0000   1.0000   1.0000   1.0000   1.0000   1.0000   1.0000
     1.0000   1.0000   1.0000   1.0000   1.0000   1.0000   1.0000   1.0000
     1.0000   1.0000   1.0000   1.0000   1.0000   1.0000   1.0000   1.0000
     1.0000   1.0000   1.0000   1.0000   1.0000   1.0000   1.0000   1.0000
     1.0000   1.0000   1.0000   1.0000   1.0000   1.0000   1.0000   1.0000
     1.0000   1.0000   1.0000   1.0000   1.0000   1.0000   1.0000   1.0000
     1.0000   1.0000   1.0000   1.0000   1.0000   1.0000   1.0000   1.0000
     1.0000   1.0000   1.0000   1.0000   1.0000   1.0000   1.0000   1.0000
     1.0000   1.0000   1.0000   1.0000   1.0000   1.0000   1.0000   1.0000
     1.0000   1.0000   1.0000   1.0000   1.0000   1.0000   1.0000   1.0000
     1.0000   1.0000   1.0000   1.0000   1.0000   1.0000   1.0000   1.0000
     1.0000   1.0000   1.0000   1.0000   1.0000   1.0000   1.0000   1.0000
     1.0000   1.0000   1.0000   1.0000   1.0000   1.0000   1.0000   1.0000
     1.0000   1.0000   1.0000   1.0000   1.0000   1.0000   1.0000   1.0000
     1.0000   1.0000   1.0000   1.0000   1.0000   1.0000   1.0000   1.0000
     1.0000   1.0000   1.0000   1.0000   1.0000   1.0000   1.0000   1.0000
     1.0000   1.0000   1.0000   1.0000   1.0000   1.0000   1.0000   1.0000
     1.0000   1.0000   1.0000   1.0000   1.0000   1.0000   1.0000   1.0000
     1.0000   1.0000   1.0000   1.0000   1.0000   1.0000   1.0000   1.0000
     1.0000   1.0000   1.0000   1.0000   1.0000   1.0000   1.0000   1.0000
     1.0000   1.0000   1.0000   1.0000   1.0000   1.0000   1.0000   1.0000
     1.0000   1.0000   1.0000   1.0000   1.0000   1.0000   1.0000   1.0000
     1.0000   1.0000   1.0000   1.0000   1.0000   1.0000   1.0000   1.0000
     1.0000   1.0000   1.0000   1.0000   1.0000   1.0000   1.0000   1.0000
     1.0000   1.0000   1.0000   1.0000   1.0000   1.0000   1.0000   1.0000
     1.0000   1.0000   1.0000   1.0000   1.0000   1.0000   1.0000   1.0000
     1.0000   1.0000   1.0000   1.0000   1.0000   1.0000   1.0000   1.0000
     1.0000   1.0000   1.0000   1.0000   1.0000   1.0000   1.0000   1.0000
     1.0000   1.0000   1.0000   1.0000   1.0000   1.0000   1.0000   1.0000
     1.0000   1.0000   1.0000   1.0000   1.0000   1.0000   1.0000   1.0000
     1.0000   1.0000   1.0000   1.0000   1.0000   1.0000   1.0000   1.0000
     1.0000   1.0000   1.0000   1.0000   1.0000   1.0000   1.0000   1.0000
     1.0000   1.0000   1.0000   1.0000   1.0000   1.0000   1.0000   1.0000
     1.0000   1.0000   1.0000   1.0000   1.0000   1.0000   1.0000   1.0000
     1.0000   1.0000   1.0000   1.0000   1.0000   1.0000   1.0000   1.0000
     1.0000   1.0000   1.0000   1.0000   1.0000   1.0000   1.0000   1.0000
     1.0000   1.0000   1.0000   1.0000   1.0000   1.0000   1.0000   1.0000
     1.0000   1.0000   1.0000   1.0000   1.0000   1.0000   1.0000   1.0000
     1.0000   1.0000   1.0000   1.0000   1.0000   1.0000   1.0000   1.0000
     1.0000   1.0000   1.0000   1.0000   1.0000   1.0000   1.0000   1.0000
     1.0000   1.0000   1.0000   1.0000   1.0000   1.0000   1.0000   1.0000
     1.0000   1.0000   1.0000   1.0000   1.0000   1.0000   1.0000   1.0000
     1.0000   1.0000   1.0000   1.0000   1.0000   1.0000   1.0000   1.0000
     1.0000   1.0000   1.0000   1.0000   1.0000   1.0000   1.0000   1.0000
     1.0000   1.0000   1.0000   1.0000   1.0000   1.0000   1.0000   1.0000
     1.0000   1.0000   1.0000   1.0000   1.0000   1.0000   1.0000   1.0000
     1.0000   1.0000   1.0000   1.0000   1.0000   1.0000   1.0000   1.0000
     1.0000   1.0000   1.0000   1.0000   1.0000   1.0000   1.0000   1.0000
     1.0000   1.0000   1.0000   1.0000   1.0000   1.0000   1.0000   1.0000
     1.0000   1.0000   1.0000   1.0000   1.0000   1.0000   1.0000   1.0000
     1.0000   1.0000   1.0000   1.0000   1.0000   1.0000   0.9998   0.9997
     0.9997   0.9997   0.9997   0.9997   0.9996   0.9996   0.9996   0.9995
     0.9993   0.9993   0.9993   0.9993   0.9992   0.9991   0.9977   0.9976
     0.9970   0.9962   0.9957   0.9955   0.9953   0.9949   0.9949   0.9945
     0.9863   0.9850   0.9828   0.9820   0.9710   0.9687   0.9667   0.9647
     0.9644   0.9628   0.9610   0.9607   0.9455   0.9399   0.9375   0.9350
     0.1272   0.1216   0.0072   0.0065   0.0048   0.0025   0.0022   0.0022
     0.0001   0.0001   0.0001   0.0001   0.0000   0.0000   0.0000   0.0000
     0.0000   0.0000   0.0000   0.0000   0.0000   0.0000   0.0000   0.0000
     0.0000   0.0000   0.0000   0.0000   0.0000   0.0000   0.0000   0.0000
     0.0000   0.0000   0.0000   0.0000   0.0000   0.0000   0.0000   0.0000
     0.0000   0.0000   0.0000   0.0000   0.0000   0.0000   0.0000   0.0000
     0.0000   0.0000   0.0000   0.0000   0.0000   0.0000   0.0000   0.0000
     0.0000   0.0000   0.0000   0.0000   0.0000   0.0000   0.0000   0.0000
     0.0000   0.0000   0.0000   0.0000   0.0000   0.0000   0.0000   0.0000
     0.0000   0.0000   0.0000   0.0000   0.0000   0.0000   0.0000   0.0000

          k = 0.5000-0.2887 0.2850 (100630 PWs)   bands (ev):

   -71.1988 -71.1924 -71.1921 -71.1809 -71.1805 -71.1795 -71.1793 -71.1791
   -71.1789 -71.1759 -71.1758 -71.1741 -71.1739 -71.1720 -71.1718 -71.1717
   -71.1714 -71.1713 -71.1712 -71.1711 -71.1710 -71.1707 -71.1705 -71.1688
   -71.1676 -71.1674 -71.1499 -71.1497 -71.1494 -71.1492 -71.1348 -71.1347
   -71.1343 -71.1341 -71.1333 -71.1332 -70.0716 -70.0715 -70.0189 -70.0188
   -70.0182 -70.0181 -70.0106 -70.0105 -70.0101 -70.0100 -70.0098 -70.0097
   -70.0060 -70.0057 -70.0056 -70.0012 -70.0003 -69.9988 -69.9987 -69.9984
   -69.9983 -69.9983 -69.9982 -69.9979 -69.9964 -69.9962 -69.9960 -69.9959
   -69.9843 -69.9796 -69.9789 -69.9747 -69.9683 -69.9682 -69.9247 -69.8930
   -37.3421 -37.3266 -37.3260 -37.3132 -37.3128 -37.3117 -37.3117 -37.3111
   -37.3101 -37.3092 -37.3090 -37.3088 -37.3077 -37.3059 -37.3058 -37.3055
   -37.3050 -37.3046 -37.3044 -37.3017 -37.3015 -37.3004 -37.2995 -37.2995
   -37.2968 -37.2963 -37.2828 -37.2820 -37.2788 -37.2782 -37.2667 -37.2658
   -37.2620 -37.2615 -37.2549 -37.2521 -37.2378 -37.2349 -37.2338 -37.2290
   -37.2252 -37.2245 -37.2235 -37.2234 -37.2231 -37.2227 -37.2226 -37.2206
   -37.2179 -37.2177 -37.2161 -37.2157 -37.2156 -37.2155 -37.2152 -37.2142
   -37.2134 -37.2133 -37.2130 -37.2128 -37.2125 -37.2104 -37.2102 -37.2101
   -37.2089 -37.2087 -37.2082 -37.2080 -37.2079 -37.2069 -37.2034 -37.2034
   -37.2026 -37.2023 -37.2016 -37.2010 -37.2007 -37.2002 -37.2000 -37.1996
   -37.1993 -37.1991 -37.1963 -37.1959 -37.1942 -37.1939 -37.1938 -37.1934
   -37.1897 -37.1895 -37.1889 -37.1882 -37.1831 -37.1825 -37.1808 -37.1803
   -37.1801 -37.1799 -37.1779 -37.1772 -37.1772 -37.1765 -37.1693 -37.1685
   -37.1592 -37.1586 -37.1586 -37.1578 -36.3315 -36.3310 -36.3011 -36.3007
   -36.2992 -36.2989 -36.2989 -36.2983 -36.2977 -36.2972 -36.2784 -36.2723
   -36.2392 -36.2390 -36.2196 -36.2194 -36.2170 -36.2164 -36.2110 -36.2106
   -36.2106 -36.2104 -36.2103 -36.2102 -36.2083 -36.2082 -36.2079 -36.2076
   -36.2074 -36.1999 -36.1991 -36.1939 -36.1936 -36.1784 -36.1675 -36.1079
   -36.1076 -36.1076 -36.0958 -36.0926 -36.0735 -36.0712 -36.0707 -36.0703
   -36.0655 -36.0653 -36.0603 -36.0599 -36.0598 -36.0592 -36.0591 -36.0589
   -36.0559 -36.0556 -36.0555 -36.0551 -36.0548 -36.0546 -36.0516 -36.0508
   -36.0469 -36.0376 -36.0368 -36.0356 -36.0352 -36.0335 -36.0327 -36.0318
   -36.0280 -36.0264 -36.0264 -36.0260 -36.0257 -36.0255 -36.0252 -36.0246
   -36.0243 -36.0232 -36.0228 -36.0210 -36.0193 -36.0185 -36.0182 -36.0160
   -36.0153 -36.0147 -36.0138 -36.0134 -36.0126 -36.0116 -36.0112 -36.0109
   -36.0108 -36.0105 -36.0102 -36.0102 -36.0088 -36.0083 -35.9905 -35.9899
   -35.9820 -35.9787 -35.9678 -35.9673 -35.9669 -35.9564 -35.9422 -35.9011
     3.6120   3.6705   4.1200   4.1977   4.2029   4.2046   4.6389   4.6684
     4.9166   4.9563   5.0240   5.0538   5.1271   5.1444   5.2530   5.2676
     5.2705   5.2918   5.3485   5.3575   5.4639   5.4819   5.5191   5.5276
     5.6021   5.6287   5.6306   5.6350   5.6538   5.6570   5.8603   5.8613
     5.8785   5.8939   6.1303   6.1308   8.6065   9.7579   9.7867   9.8733
     9.8957   9.9435   9.9594   9.9607  10.0324  10.1034  10.1049  10.1349
    10.1792  10.2372  10.2388  10.2430  10.2435  10.2633  10.3104  10.3452
    10.5248  10.5379  10.5443  10.5538  10.5762  10.5862  10.8265  10.8798
    10.9073  10.9121  11.0640  11.1081  11.1533  11.2891  11.2932  11.3451
    11.3474  11.3488  11.3628  11.3729  11.4483  11.5996  11.6165  11.6209
    11.6464  11.7014  11.7093  11.7167  11.7281  11.7362  11.7750  11.7870
    11.9215  11.9361  11.9789  11.9860  11.9869  11.9943  12.0643  12.0851
    12.0966  12.1010  12.1031  12.1160  12.1181  12.1199  12.1257  12.1300
    12.1820  12.2019  12.2412  12.2480  12.2744  12.2800  12.2985  12.3026
    12.3313  12.3947  12.3954  12.3990  12.4228  12.4342  12.4737  12.4769
    12.5349  12.5354  12.5653  12.5705  12.6079  12.6240  12.6277  12.6402
    12.6528  12.6534  12.7311  12.7428  12.7798  12.7803  12.8256  12.8381
    12.8790  12.8970  12.9907  13.0027  13.0255  13.0446  13.0967  13.1743
    13.2314  13.5849  13.5861  13.6047  13.6051  13.6360  13.6475  13.6554
    13.6598  13.6711  13.6778  13.7009  13.7027  13.7141  13.7212  13.7230
    13.7531  13.7601  13.7642  13.7966  13.8003  13.8092  13.8133  13.8261
    13.8404  13.8622  13.8660  13.8699  13.8724  13.8744  13.8814  13.8828
    13.8906  13.8943  13.9143  13.9296  13.9315  13.9381  13.9384  13.9403
    13.9436  13.9704  13.9789  13.9851  14.0249  14.0313  14.0326  14.0553
    14.0577  14.0629  14.0646  14.0703  14.0715  14.0827  14.0838  14.0856
    14.1173  14.1288  14.1535  14.1682  14.1722  14.1770  14.1946  14.1978
    14.2078  14.2093  14.2135  14.2158  14.2175  14.2241  14.2329  14.2331
    14.2655  14.2706  14.2851  14.2890  14.3866  14.3868  14.4097  14.4102
    14.5296  14.5345  14.5668  14.5788  14.7368  14.7780  14.7966  14.8016
    14.8443  14.8496  14.8509  14.8663  14.8751  14.8759  14.9018  14.9068
    14.9156  14.9390  14.9421  14.9510  14.9605  14.9649  14.9755  14.9773
    15.0089  15.0121  15.0190  15.0223  15.0276  15.0360  15.0402  15.0477
    15.0492  15.0503  15.0509  15.0554  15.0796  15.0916  15.1040  15.1041
    15.1144  15.1170  15.1254  15.1299  15.1341  15.1446  15.1482  15.1524
    15.1534  15.1547  15.1654  15.1739  15.1777  15.1813  15.2072  15.2106
    15.2512  15.2574  15.2767  15.2828  15.2899  15.2965  15.3032  15.3099
    15.3218  15.3255  15.3256  15.3298  15.3378  15.3510  15.3823  15.3840
    15.4356  15.4358  15.4459  15.4472  15.4637  15.4672  15.4691  15.4720
    15.4784  15.4902  15.5354  15.5487  15.5579  15.5620  15.5633  15.5759
    15.5859  15.5919  15.6133  15.6224  15.6247  15.6263  15.6358  15.6380
    15.6557  15.6644  15.7183  15.7249  15.7307  15.7547  15.7633  15.7658
    15.7736  15.7808  15.7986  15.7988  15.8406  15.8444  15.8459  15.8480
    15.8511  15.8613  15.8677  15.8739  15.8893  15.8925  15.8978  15.8986
    15.9188  15.9215  15.9599  15.9628  15.9663  15.9731  16.0088  16.0216
    16.0280  16.0326  16.0365  16.0435  16.0643  16.0673  16.0745  16.0771
    16.0804  16.0938  16.1023  16.1054  16.1266  16.1295  16.1757  16.1766
    16.1833  16.1958  16.2186  16.2204  16.2239  16.2286  16.2297  16.2367
    16.2651  16.2662  16.2759  16.2834  16.2836  16.2876  16.3050  16.3144
    16.4074  16.4076  16.4218  16.4361  16.4473  16.4699  16.4972  16.5029
    16.5332  16.5356  16.5420  16.5479  16.5563  16.5575  16.5630  16.5647
    16.5752  16.5791  16.5970  16.6004  16.6375  16.6382  16.6570  16.6589
    16.6992  16.7031  16.7161  16.7210  16.7605  16.7744  16.7909  16.7930
    16.7962  16.7968  16.7985  16.8055  16.8275  16.8346  16.8414  16.8422
    16.8688  16.8774  16.9232  16.9353  16.9765  16.9810  17.0652  17.0813
    17.3459  17.3487  17.5262  17.5487  17.7119  17.7137  17.7962  17.8226
    17.8562  17.8588  17.9180  17.9336  18.0031  18.0139  18.0143  18.0268
    18.0827  18.0841  18.1173  18.1248  18.1696  18.1797  18.3634  18.3674
    18.4172  18.4393  18.4828  18.4953  18.5967  18.6062  18.6926  18.7495
    18.7892  18.8059  18.8132  18.8215  18.8303  18.8321  18.9217  18.9468
    18.9835  18.9975  19.0511  19.0673  19.1202  19.1333  19.1598  19.1849
    19.2562  19.2744  19.3786  19.3889  19.5571  19.5610  19.5703  19.5836
    19.6525  19.6558  19.6583  19.6676  19.6739  19.6791  19.7224  19.7325
    19.7951  19.7970  19.9162  19.9242  20.0483  20.0494  20.2045  20.2448
    20.6823  20.7005  20.8329  20.8800  20.9210  21.1679  21.1742  21.5308

     occupation numbers 
     1.0000   1.0000   1.0000   1.0000   1.0000   1.0000   1.0000   1.0000
     1.0000   1.0000   1.0000   1.0000   1.0000   1.0000   1.0000   1.0000
     1.0000   1.0000   1.0000   1.0000   1.0000   1.0000   1.0000   1.0000
     1.0000   1.0000   1.0000   1.0000   1.0000   1.0000   1.0000   1.0000
     1.0000   1.0000   1.0000   1.0000   1.0000   1.0000   1.0000   1.0000
     1.0000   1.0000   1.0000   1.0000   1.0000   1.0000   1.0000   1.0000
     1.0000   1.0000   1.0000   1.0000   1.0000   1.0000   1.0000   1.0000
     1.0000   1.0000   1.0000   1.0000   1.0000   1.0000   1.0000   1.0000
     1.0000   1.0000   1.0000   1.0000   1.0000   1.0000   1.0000   1.0000
     1.0000   1.0000   1.0000   1.0000   1.0000   1.0000   1.0000   1.0000
     1.0000   1.0000   1.0000   1.0000   1.0000   1.0000   1.0000   1.0000
     1.0000   1.0000   1.0000   1.0000   1.0000   1.0000   1.0000   1.0000
     1.0000   1.0000   1.0000   1.0000   1.0000   1.0000   1.0000   1.0000
     1.0000   1.0000   1.0000   1.0000   1.0000   1.0000   1.0000   1.0000
     1.0000   1.0000   1.0000   1.0000   1.0000   1.0000   1.0000   1.0000
     1.0000   1.0000   1.0000   1.0000   1.0000   1.0000   1.0000   1.0000
     1.0000   1.0000   1.0000   1.0000   1.0000   1.0000   1.0000   1.0000
     1.0000   1.0000   1.0000   1.0000   1.0000   1.0000   1.0000   1.0000
     1.0000   1.0000   1.0000   1.0000   1.0000   1.0000   1.0000   1.0000
     1.0000   1.0000   1.0000   1.0000   1.0000   1.0000   1.0000   1.0000
     1.0000   1.0000   1.0000   1.0000   1.0000   1.0000   1.0000   1.0000
     1.0000   1.0000   1.0000   1.0000   1.0000   1.0000   1.0000   1.0000
     1.0000   1.0000   1.0000   1.0000   1.0000   1.0000   1.0000   1.0000
     1.0000   1.0000   1.0000   1.0000   1.0000   1.0000   1.0000   1.0000
     1.0000   1.0000   1.0000   1.0000   1.0000   1.0000   1.0000   1.0000
     1.0000   1.0000   1.0000   1.0000   1.0000   1.0000   1.0000   1.0000
     1.0000   1.0000   1.0000   1.0000   1.0000   1.0000   1.0000   1.0000
     1.0000   1.0000   1.0000   1.0000   1.0000   1.0000   1.0000   1.0000
     1.0000   1.0000   1.0000   1.0000   1.0000   1.0000   1.0000   1.0000
     1.0000   1.0000   1.0000   1.0000   1.0000   1.0000   1.0000   1.0000
     1.0000   1.0000   1.0000   1.0000   1.0000   1.0000   1.0000   1.0000
     1.0000   1.0000   1.0000   1.0000   1.0000   1.0000   1.0000   1.0000
     1.0000   1.0000   1.0000   1.0000   1.0000   1.0000   1.0000   1.0000
     1.0000   1.0000   1.0000   1.0000   1.0000   1.0000   1.0000   1.0000
     1.0000   1.0000   1.0000   1.0000   1.0000   1.0000   1.0000   1.0000
     1.0000   1.0000   1.0000   1.0000   1.0000   1.0000   1.0000   1.0000
     1.0000   1.0000   1.0000   1.0000   1.0000   1.0000   1.0000   1.0000
     1.0000   1.0000   1.0000   1.0000   1.0000   1.0000   1.0000   1.0000
     1.0000   1.0000   1.0000   1.0000   1.0000   1.0000   1.0000   1.0000
     1.0000   1.0000   1.0000   1.0000   1.0000   1.0000   1.0000   1.0000
     1.0000   1.0000   1.0000   1.0000   1.0000   1.0000   1.0000   1.0000
     1.0000   1.0000   1.0000   1.0000   1.0000   1.0000   1.0000   1.0000
     1.0000   1.0000   1.0000   1.0000   1.0000   1.0000   1.0000   1.0000
     1.0000   1.0000   1.0000   1.0000   1.0000   1.0000   1.0000   1.0000
     1.0000   1.0000   1.0000   1.0000   1.0000   1.0000   1.0000   1.0000
     1.0000   1.0000   1.0000   1.0000   1.0000   1.0000   1.0000   1.0000
     1.0000   1.0000   1.0000   1.0000   1.0000   1.0000   1.0000   1.0000
     1.0000   1.0000   1.0000   1.0000   1.0000   1.0000   1.0000   1.0000
     1.0000   1.0000   1.0000   1.0000   1.0000   1.0000   1.0000   1.0000
     1.0000   1.0000   1.0000   1.0000   1.0000   1.0000   1.0000   1.0000
     1.0000   1.0000   1.0000   1.0000   1.0000   1.0000   1.0000   1.0000
     1.0000   1.0000   1.0000   1.0000   1.0000   1.0000   1.0000   1.0000
     1.0000   1.0000   1.0000   1.0000   1.0000   1.0000   1.0000   1.0000
     1.0000   1.0000   1.0000   1.0000   1.0000   1.0000   1.0000   1.0000
     1.0000   1.0000   1.0000   1.0000   1.0000   1.0000   1.0000   1.0000
     1.0000   1.0000   1.0000   1.0000   1.0000   1.0000   1.0000   1.0000
     1.0000   1.0000   1.0000   1.0000   1.0000   1.0000   1.0000   1.0000
     1.0000   1.0000   1.0000   1.0000   1.0000   1.0000   1.0000   1.0000
     1.0000   1.0000   1.0000   1.0000   1.0000   1.0000   1.0000   1.0000
     1.0000   1.0000   1.0000   1.0000   1.0000   1.0000   1.0000   1.0000
     1.0000   1.0000   1.0000   1.0000   1.0000   1.0000   1.0000   1.0000
     1.0000   1.0000   1.0000   1.0000   1.0000   1.0000   1.0000   1.0000
     1.0000   1.0000   1.0000   1.0000   1.0000   1.0000   1.0000   1.0000
     1.0000   1.0000   1.0000   1.0000   1.0000   1.0000   1.0000   1.0000
     1.0000   1.0000   1.0000   1.0000   1.0000   1.0000   1.0000   1.0000
     1.0000   1.0000   1.0000   1.0000   1.0000   1.0000   1.0000   1.0000
     1.0000   1.0000   1.0000   1.0000   1.0000   1.0000   1.0000   1.0000
     1.0000   1.0000   1.0000   1.0000   1.0000   1.0000   1.0000   1.0000
     1.0000   1.0000   1.0000   1.0000   1.0000   1.0000   1.0000   1.0000
     1.0000   1.0000   1.0000   1.0000   1.0000   1.0000   1.0000   1.0000
     1.0000   1.0000   1.0000   1.0000   1.0000   1.0000   1.0000   1.0000
     1.0000   1.0000   1.0000   1.0000   1.0000   1.0000   1.0000   1.0000
     1.0000   1.0000   1.0000   1.0000   1.0000   1.0000   1.0000   1.0000
     1.0000   1.0000   1.0000   1.0000   1.0000   1.0000   1.0000   1.0000
     1.0000   1.0000   1.0000   1.0000   1.0000   1.0000   1.0000   1.0000
     1.0000   1.0000   1.0000   1.0000   1.0000   1.0000   1.0000   1.0000
     1.0000   1.0000   1.0000   1.0000   1.0000   1.0000   1.0000   1.0000
     1.0000   1.0000   1.0000   1.0000   1.0000   1.0000   1.0000   1.0000
     1.0000   1.0000   1.0000   1.0000   1.0000   1.0000   1.0000   1.0000
     1.0000   1.0000   1.0000   1.0000   1.0000   1.0000   1.0000   1.0000
     1.0000   1.0000   1.0000   1.0000   1.0000   1.0000   1.0000   1.0000
     1.0000   1.0000   1.0000   1.0000   1.0000   1.0000   1.0000   1.0000
     1.0000   1.0000   1.0000   1.0000   1.0000   1.0000   1.0000   1.0000
     1.0000   1.0000   1.0000   1.0000   1.0000   1.0000   1.0000   1.0000
     1.0000   1.0000   1.0000   1.0000   1.0000   0.9999   0.9999   0.9999
     0.9998   0.9998   0.9998   0.9997   0.9997   0.9997   0.9996   0.9996
     0.9995   0.9995   0.9993   0.9993   0.9986   0.9986   0.9980   0.9980
     0.9962   0.9959   0.9950   0.9947   0.9906   0.9886   0.9857   0.9853
     0.9847   0.9846   0.9842   0.9827   0.9772   0.9752   0.9730   0.9728
     0.9629   0.9591   0.9334   0.9249   0.8897   0.8852   0.7775   0.7518
     0.2436   0.2390   0.0513   0.0401   0.0047   0.0046   0.0012   0.0008
     0.0004   0.0004   0.0001   0.0001   0.0000   0.0000   0.0000   0.0000
     0.0000   0.0000   0.0000   0.0000   0.0000   0.0000   0.0000   0.0000
     0.0000   0.0000   0.0000   0.0000   0.0000   0.0000   0.0000   0.0000
     0.0000   0.0000   0.0000   0.0000   0.0000   0.0000   0.0000   0.0000
     0.0000   0.0000   0.0000   0.0000   0.0000   0.0000   0.0000   0.0000
     0.0000   0.0000   0.0000   0.0000   0.0000   0.0000   0.0000   0.0000
     0.0000   0.0000   0.0000   0.0000   0.0000   0.0000   0.0000   0.0000
     0.0000   0.0000   0.0000   0.0000   0.0000   0.0000   0.0000   0.0000
     0.0000   0.0000   0.0000   0.0000   0.0000   0.0000   0.0000   0.0000

          k = 0.5000-0.2887-0.5700 (100572 PWs)   bands (ev):

   -71.1988 -71.1924 -71.1921 -71.1809 -71.1805 -71.1795 -71.1793 -71.1791
   -71.1790 -71.1759 -71.1758 -71.1741 -71.1739 -71.1720 -71.1719 -71.1717
   -71.1714 -71.1713 -71.1712 -71.1711 -71.1710 -71.1707 -71.1705 -71.1688
   -71.1676 -71.1674 -71.1499 -71.1497 -71.1494 -71.1492 -71.1348 -71.1347
   -71.1343 -71.1341 -71.1333 -71.1332 -70.0716 -70.0715 -70.0189 -70.0188
   -70.0182 -70.0181 -70.0106 -70.0105 -70.0101 -70.0100 -70.0098 -70.0097
   -70.0060 -70.0057 -70.0056 -70.0012 -70.0003 -69.9988 -69.9987 -69.9984
   -69.9983 -69.9983 -69.9982 -69.9979 -69.9964 -69.9962 -69.9960 -69.9959
   -69.9843 -69.9796 -69.9789 -69.9747 -69.9683 -69.9682 -69.9247 -69.8930
   -37.3421 -37.3266 -37.3260 -37.3137 -37.3133 -37.3120 -37.3116 -37.3111
   -37.3105 -37.3094 -37.3081 -37.3077 -37.3072 -37.3063 -37.3060 -37.3053
   -37.3052 -37.3049 -37.3037 -37.3009 -37.3006 -37.3004 -37.3001 -37.2997
   -37.2974 -37.2969 -37.2826 -37.2819 -37.2789 -37.2784 -37.2665 -37.2656
   -37.2622 -37.2616 -37.2548 -37.2522 -37.2378 -37.2349 -37.2338 -37.2290
   -37.2252 -37.2245 -37.2235 -37.2233 -37.2231 -37.2227 -37.2226 -37.2206
   -37.2179 -37.2177 -37.2161 -37.2157 -37.2156 -37.2155 -37.2152 -37.2142
   -37.2134 -37.2133 -37.2130 -37.2128 -37.2125 -37.2104 -37.2102 -37.2101
   -37.2090 -37.2087 -37.2083 -37.2079 -37.2079 -37.2068 -37.2034 -37.2034
   -37.2026 -37.2021 -37.2018 -37.2010 -37.2006 -37.2003 -37.2000 -37.1996
   -37.1993 -37.1990 -37.1963 -37.1958 -37.1941 -37.1940 -37.1939 -37.1933
   -37.1897 -37.1895 -37.1889 -37.1882 -37.1831 -37.1825 -37.1808 -37.1803
   -37.1801 -37.1799 -37.1779 -37.1773 -37.1771 -37.1764 -37.1693 -37.1684
   -37.1592 -37.1586 -37.1585 -37.1578 -36.3315 -36.3311 -36.3011 -36.3006
   -36.2993 -36.2989 -36.2989 -36.2982 -36.2977 -36.2972 -36.2783 -36.2723
   -36.2392 -36.2389 -36.2196 -36.2193 -36.2170 -36.2164 -36.2110 -36.2106
   -36.2106 -36.2104 -36.2103 -36.2102 -36.2083 -36.2082 -36.2079 -36.2076
   -36.2074 -36.1998 -36.1991 -36.1939 -36.1936 -36.1784 -36.1675 -36.1079
   -36.1076 -36.1075 -36.0958 -36.0925 -36.0735 -36.0712 -36.0708 -36.0703
   -36.0655 -36.0653 -36.0603 -36.0598 -36.0598 -36.0592 -36.0591 -36.0588
   -36.0560 -36.0556 -36.0556 -36.0550 -36.0548 -36.0546 -36.0516 -36.0508
   -36.0468 -36.0376 -36.0369 -36.0356 -36.0352 -36.0334 -36.0329 -36.0319
   -36.0277 -36.0264 -36.0263 -36.0259 -36.0257 -36.0254 -36.0252 -36.0246
   -36.0246 -36.0233 -36.0228 -36.0201 -36.0192 -36.0188 -36.0185 -36.0162
   -36.0156 -36.0148 -36.0137 -36.0134 -36.0118 -36.0112 -36.0111 -36.0109
   -36.0108 -36.0107 -36.0105 -36.0101 -36.0090 -36.0086 -35.9905 -35.9899
   -35.9820 -35.9787 -35.9678 -35.9672 -35.9669 -35.9564 -35.9422 -35.9011
     3.7749   3.8680   3.8769   3.8784   4.3304   4.3823   4.3829   4.3847
     5.0252   5.0904   5.0945   5.0987   5.2575   5.2661   5.2779   5.2842
     5.3078   5.3503   5.3650   5.3731   5.3756   5.3801   5.5228   5.5347
     5.5695   5.5751   5.5830   5.6105   5.7185   5.7204   5.7273   5.7281
     5.9508   5.9671   6.1772   6.1780   8.6007   9.6532   9.7043   9.7984
     9.8023   9.9287   9.9292  10.0410  10.0540  10.0660  10.0704  10.0715
    10.0742  10.0814  10.0969  10.1093  10.3120  10.3634  10.3711  10.3759
    10.3801  10.3887  10.3919  10.4095  10.5187  10.5285  10.8897  10.9548
    10.9657  10.9691  11.1032  11.1084  11.1755  11.4416  11.4433  11.4656
    11.5115  11.5146  11.6106  11.7068  11.7181  11.7186  11.7208  11.7295
    11.7350  11.7454  11.7511  11.7553  11.7657  11.8480  11.8496  11.8751
    11.8859  11.8860  11.8900  11.8916  12.0641  12.0686  12.1328  12.1506
    12.1523  12.1629  12.1727  12.1794  12.1867  12.1910  12.1994  12.2019
    12.2155  12.2323  12.2336  12.2370  12.2476  12.2537  12.2782  12.2787
    12.2830  12.2883  12.3027  12.3153  12.3171  12.3191  12.3695  12.3754
    12.3775  12.3803  12.3831  12.3880  12.5236  12.5289  12.7003  12.7062
    12.7076  12.7145  12.7208  12.7273  12.7276  12.7310  12.7438  12.7439
    12.9588  12.9696  12.9751  12.9760  12.9832  12.9871  12.9917  12.9992
    13.1485  13.5835  13.5888  13.5996  13.6011  13.6104  13.6212  13.6702
    13.6714  13.6719  13.6762  13.6858  13.7015  13.7266  13.7404  13.7528
    13.7699  13.7749  13.7827  13.7869  13.7886  13.8032  13.8244  13.8295
    13.8320  13.8361  13.8424  13.8505  13.8586  13.8617  13.8644  13.8711
    13.8753  13.8930  13.9186  13.9464  13.9475  13.9637  13.9677  13.9682
    13.9801  13.9818  13.9847  13.9852  13.9858  13.9893  13.9938  13.9942
    14.0343  14.0507  14.0586  14.0783  14.0802  14.0855  14.1078  14.1121
    14.1218  14.1221  14.1311  14.1434  14.1456  14.1548  14.1595  14.1692
    14.1907  14.1932  14.2279  14.2349  14.2376  14.2406  14.2799  14.2830
    14.3100  14.3156  14.3175  14.3201  14.3648  14.3665  14.3778  14.3820
    14.5049  14.5076  14.5099  14.5121  14.7925  14.8017  14.8068  14.8153
    14.8692  14.8889  14.8922  14.9035  14.9072  14.9331  14.9442  14.9574
    14.9743  14.9755  14.9772  14.9780  14.9885  15.0018  15.0107  15.0191
    15.0229  15.0251  15.0294  15.0347  15.0364  15.0391  15.0483  15.0493
    15.0537  15.0567  15.0635  15.0663  15.0684  15.0841  15.0847  15.0856
    15.0872  15.0877  15.0981  15.1045  15.1047  15.1061  15.1081  15.1191
    15.1230  15.1243  15.1310  15.1312  15.1805  15.1810  15.1924  15.1940
    15.2259  15.2338  15.2520  15.2561  15.3149  15.3216  15.3241  15.3257
    15.3465  15.3688  15.3720  15.3763  15.3780  15.3785  15.3833  15.3993
    15.3993  15.4044  15.4067  15.4175  15.4747  15.4856  15.4891  15.4948
    15.5019  15.5251  15.5309  15.5376  15.5403  15.5416  15.5485  15.5593
    15.5622  15.5627  15.5631  15.5666  15.6193  15.6326  15.6381  15.6495
    15.6628  15.6956  15.7001  15.7084  15.7271  15.7351  15.7356  15.7436
    15.8066  15.8111  15.8257  15.8479  15.8574  15.8605  15.8662  15.8705
    15.8722  15.8767  15.8886  15.8940  15.8967  15.8974  15.9009  15.9021
    15.9090  15.9177  15.9503  15.9518  15.9555  15.9604  15.9606  15.9680
    16.0194  16.0204  16.0211  16.0242  16.0263  16.0281  16.0479  16.0509
    16.0531  16.0581  16.0636  16.0719  16.0890  16.0929  16.1625  16.1668
    16.1901  16.2037  16.2071  16.2132  16.2161  16.2178  16.2558  16.2630
    16.2643  16.2688  16.2702  16.2718  16.2737  16.2772  16.2784  16.2847
    16.4141  16.4173  16.4314  16.4356  16.4418  16.4421  16.4511  16.4965
    16.5039  16.5124  16.5358  16.5440  16.5648  16.5665  16.5686  16.5698
    16.5921  16.5927  16.5958  16.5974  16.6726  16.6772  16.6796  16.6801
    16.6989  16.6998  16.7038  16.7070  16.7339  16.7419  16.7426  16.7431
    16.8062  16.8203  16.8232  16.8273  16.9164  16.9203  16.9231  16.9234
    16.9261  16.9291  16.9302  16.9391  17.1085  17.1425  17.1538  17.1595
    17.3026  17.3092  17.3104  17.3158  17.7541  17.7699  17.7754  17.7761
    17.7773  17.7801  17.8536  17.8712  17.8714  17.8833  17.9943  18.0255
    18.0816  18.0821  18.3072  18.3258  18.3628  18.3682  18.4197  18.4340
    18.4369  18.4461  18.5109  18.5200  18.7254  18.7439  18.7531  18.7533
    18.7674  18.8428  18.8454  18.8858  18.9132  18.9270  18.9296  18.9391
    18.9499  18.9527  18.9691  18.9770  18.9837  18.9917  19.0500  19.0570
    19.1759  19.2027  19.2865  19.3021  19.3113  19.3114  19.3370  19.3382
    19.3430  19.3441  19.6379  19.6471  19.6548  19.6571  19.8529  19.8713
    19.8719  19.8755  19.9940  20.0048  20.0084  20.0108  20.0705  20.0742
    20.5492  20.5797  20.7031  20.7130  20.9434  21.0724  21.1019  22.0880

     occupation numbers 
     1.0000   1.0000   1.0000   1.0000   1.0000   1.0000   1.0000   1.0000
     1.0000   1.0000   1.0000   1.0000   1.0000   1.0000   1.0000   1.0000
     1.0000   1.0000   1.0000   1.0000   1.0000   1.0000   1.0000   1.0000
     1.0000   1.0000   1.0000   1.0000   1.0000   1.0000   1.0000   1.0000
     1.0000   1.0000   1.0000   1.0000   1.0000   1.0000   1.0000   1.0000
     1.0000   1.0000   1.0000   1.0000   1.0000   1.0000   1.0000   1.0000
     1.0000   1.0000   1.0000   1.0000   1.0000   1.0000   1.0000   1.0000
     1.0000   1.0000   1.0000   1.0000   1.0000   1.0000   1.0000   1.0000
     1.0000   1.0000   1.0000   1.0000   1.0000   1.0000   1.0000   1.0000
     1.0000   1.0000   1.0000   1.0000   1.0000   1.0000   1.0000   1.0000
     1.0000   1.0000   1.0000   1.0000   1.0000   1.0000   1.0000   1.0000
     1.0000   1.0000   1.0000   1.0000   1.0000   1.0000   1.0000   1.0000
     1.0000   1.0000   1.0000   1.0000   1.0000   1.0000   1.0000   1.0000
     1.0000   1.0000   1.0000   1.0000   1.0000   1.0000   1.0000   1.0000
     1.0000   1.0000   1.0000   1.0000   1.0000   1.0000   1.0000   1.0000
     1.0000   1.0000   1.0000   1.0000   1.0000   1.0000   1.0000   1.0000
     1.0000   1.0000   1.0000   1.0000   1.0000   1.0000   1.0000   1.0000
     1.0000   1.0000   1.0000   1.0000   1.0000   1.0000   1.0000   1.0000
     1.0000   1.0000   1.0000   1.0000   1.0000   1.0000   1.0000   1.0000
     1.0000   1.0000   1.0000   1.0000   1.0000   1.0000   1.0000   1.0000
     1.0000   1.0000   1.0000   1.0000   1.0000   1.0000   1.0000   1.0000
     1.0000   1.0000   1.0000   1.0000   1.0000   1.0000   1.0000   1.0000
     1.0000   1.0000   1.0000   1.0000   1.0000   1.0000   1.0000   1.0000
     1.0000   1.0000   1.0000   1.0000   1.0000   1.0000   1.0000   1.0000
     1.0000   1.0000   1.0000   1.0000   1.0000   1.0000   1.0000   1.0000
     1.0000   1.0000   1.0000   1.0000   1.0000   1.0000   1.0000   1.0000
     1.0000   1.0000   1.0000   1.0000   1.0000   1.0000   1.0000   1.0000
     1.0000   1.0000   1.0000   1.0000   1.0000   1.0000   1.0000   1.0000
     1.0000   1.0000   1.0000   1.0000   1.0000   1.0000   1.0000   1.0000
     1.0000   1.0000   1.0000   1.0000   1.0000   1.0000   1.0000   1.0000
     1.0000   1.0000   1.0000   1.0000   1.0000   1.0000   1.0000   1.0000
     1.0000   1.0000   1.0000   1.0000   1.0000   1.0000   1.0000   1.0000
     1.0000   1.0000   1.0000   1.0000   1.0000   1.0000   1.0000   1.0000
     1.0000   1.0000   1.0000   1.0000   1.0000   1.0000   1.0000   1.0000
     1.0000   1.0000   1.0000   1.0000   1.0000   1.0000   1.0000   1.0000
     1.0000   1.0000   1.0000   1.0000   1.0000   1.0000   1.0000   1.0000
     1.0000   1.0000   1.0000   1.0000   1.0000   1.0000   1.0000   1.0000
     1.0000   1.0000   1.0000   1.0000   1.0000   1.0000   1.0000   1.0000
     1.0000   1.0000   1.0000   1.0000   1.0000   1.0000   1.0000   1.0000
     1.0000   1.0000   1.0000   1.0000   1.0000   1.0000   1.0000   1.0000
     1.0000   1.0000   1.0000   1.0000   1.0000   1.0000   1.0000   1.0000
     1.0000   1.0000   1.0000   1.0000   1.0000   1.0000   1.0000   1.0000
     1.0000   1.0000   1.0000   1.0000   1.0000   1.0000   1.0000   1.0000
     1.0000   1.0000   1.0000   1.0000   1.0000   1.0000   1.0000   1.0000
     1.0000   1.0000   1.0000   1.0000   1.0000   1.0000   1.0000   1.0000
     1.0000   1.0000   1.0000   1.0000   1.0000   1.0000   1.0000   1.0000
     1.0000   1.0000   1.0000   1.0000   1.0000   1.0000   1.0000   1.0000
     1.0000   1.0000   1.0000   1.0000   1.0000   1.0000   1.0000   1.0000
     1.0000   1.0000   1.0000   1.0000   1.0000   1.0000   1.0000   1.0000
     1.0000   1.0000   1.0000   1.0000   1.0000   1.0000   1.0000   1.0000
     1.0000   1.0000   1.0000   1.0000   1.0000   1.0000   1.0000   1.0000
     1.0000   1.0000   1.0000   1.0000   1.0000   1.0000   1.0000   1.0000
     1.0000   1.0000   1.0000   1.0000   1.0000   1.0000   1.0000   1.0000
     1.0000   1.0000   1.0000   1.0000   1.0000   1.0000   1.0000   1.0000
     1.0000   1.0000   1.0000   1.0000   1.0000   1.0000   1.0000   1.0000
     1.0000   1.0000   1.0000   1.0000   1.0000   1.0000   1.0000   1.0000
     1.0000   1.0000   1.0000   1.0000   1.0000   1.0000   1.0000   1.0000
     1.0000   1.0000   1.0000   1.0000   1.0000   1.0000   1.0000   1.0000
     1.0000   1.0000   1.0000   1.0000   1.0000   1.0000   1.0000   1.0000
     1.0000   1.0000   1.0000   1.0000   1.0000   1.0000   1.0000   1.0000
     1.0000   1.0000   1.0000   1.0000   1.0000   1.0000   1.0000   1.0000
     1.0000   1.0000   1.0000   1.0000   1.0000   1.0000   1.0000   1.0000
     1.0000   1.0000   1.0000   1.0000   1.0000   1.0000   1.0000   1.0000
     1.0000   1.0000   1.0000   1.0000   1.0000   1.0000   1.0000   1.0000
     1.0000   1.0000   1.0000   1.0000   1.0000   1.0000   1.0000   1.0000
     1.0000   1.0000   1.0000   1.0000   1.0000   1.0000   1.0000   1.0000
     1.0000   1.0000   1.0000   1.0000   1.0000   1.0000   1.0000   1.0000
     1.0000   1.0000   1.0000   1.0000   1.0000   1.0000   1.0000   1.0000
     1.0000   1.0000   1.0000   1.0000   1.0000   1.0000   1.0000   1.0000
     1.0000   1.0000   1.0000   1.0000   1.0000   1.0000   1.0000   1.0000
     1.0000   1.0000   1.0000   1.0000   1.0000   1.0000   1.0000   1.0000
     1.0000   1.0000   1.0000   1.0000   1.0000   1.0000   1.0000   1.0000
     1.0000   1.0000   1.0000   1.0000   1.0000   1.0000   1.0000   1.0000
     1.0000   1.0000   1.0000   1.0000   1.0000   1.0000   1.0000   1.0000
     1.0000   1.0000   1.0000   1.0000   1.0000   1.0000   1.0000   1.0000
     1.0000   1.0000   1.0000   1.0000   1.0000   1.0000   1.0000   1.0000
     1.0000   1.0000   1.0000   1.0000   1.0000   1.0000   1.0000   1.0000
     1.0000   1.0000   1.0000   1.0000   1.0000   1.0000   1.0000   1.0000
     1.0000   1.0000   1.0000   1.0000   1.0000   1.0000   1.0000   1.0000
     1.0000   1.0000   1.0000   1.0000   1.0000   1.0000   1.0000   1.0000
     1.0000   1.0000   1.0000   1.0000   1.0000   1.0000   1.0000   1.0000
     1.0000   1.0000   1.0000   1.0000   1.0000   1.0000   1.0000   1.0000
     1.0000   1.0000   1.0000   1.0000   1.0000   1.0000   1.0000   1.0000
     1.0000   1.0000   1.0000   1.0000   1.0000   1.0000   1.0000   1.0000
     1.0000   1.0000   1.0000   1.0000   1.0000   1.0000   1.0000   0.9999
     0.9999   0.9999   0.9998   0.9997   0.9996   0.9996   0.9996   0.9996
     0.9994   0.9994   0.9993   0.9993   0.9975   0.9973   0.9972   0.9972
     0.9962   0.9961   0.9959   0.9957   0.9935   0.9927   0.9927   0.9926
     0.9826   0.9792   0.9784   0.9773   0.9379   0.9353   0.9335   0.9333
     0.9315   0.9294   0.9286   0.9221   0.7049   0.6413   0.6193   0.6079
     0.3192   0.3071   0.3049   0.2951   0.0024   0.0019   0.0017   0.0017
     0.0017   0.0016   0.0004   0.0003   0.0003   0.0002   0.0000   0.0000
     0.0000   0.0000   0.0000   0.0000   0.0000   0.0000   0.0000   0.0000
     0.0000   0.0000   0.0000   0.0000   0.0000   0.0000   0.0000   0.0000
     0.0000   0.0000   0.0000   0.0000   0.0000   0.0000   0.0000   0.0000
     0.0000   0.0000   0.0000   0.0000   0.0000   0.0000   0.0000   0.0000
     0.0000   0.0000   0.0000   0.0000   0.0000   0.0000   0.0000   0.0000
     0.0000   0.0000   0.0000   0.0000   0.0000   0.0000   0.0000   0.0000
     0.0000   0.0000   0.0000   0.0000   0.0000   0.0000   0.0000   0.0000
     0.0000   0.0000   0.0000   0.0000   0.0000   0.0000   0.0000   0.0000

          k =-0.2500 0.4330 0.0000 (100652 PWs)   bands (ev):

   -71.1988 -71.1924 -71.1921 -71.1809 -71.1805 -71.1795 -71.1793 -71.1791
   -71.1789 -71.1759 -71.1758 -71.1741 -71.1739 -71.1720 -71.1718 -71.1717
   -71.1714 -71.1713 -71.1712 -71.1711 -71.1710 -71.1707 -71.1705 -71.1688
   -71.1676 -71.1674 -71.1499 -71.1497 -71.1494 -71.1492 -71.1348 -71.1347
   -71.1343 -71.1341 -71.1333 -71.1332 -70.0716 -70.0715 -70.0189 -70.0188
   -70.0182 -70.0181 -70.0106 -70.0105 -70.0101 -70.0100 -70.0098 -70.0097
   -70.0060 -70.0057 -70.0056 -70.0012 -70.0003 -69.9988 -69.9987 -69.9984
   -69.9983 -69.9983 -69.9982 -69.9979 -69.9964 -69.9962 -69.9960 -69.9959
   -69.9843 -69.9796 -69.9789 -69.9747 -69.9683 -69.9682 -69.9247 -69.8930
   -37.3421 -37.3266 -37.3260 -37.3123 -37.3118 -37.3117 -37.3112 -37.3112
   -37.3104 -37.3101 -37.3093 -37.3083 -37.3082 -37.3070 -37.3060 -37.3050
   -37.3048 -37.3044 -37.3041 -37.3028 -37.3026 -37.3000 -37.2993 -37.2991
   -37.2964 -37.2959 -37.2830 -37.2821 -37.2787 -37.2781 -37.2668 -37.2659
   -37.2619 -37.2614 -37.2550 -37.2519 -37.2378 -37.2348 -37.2339 -37.2293
   -37.2252 -37.2246 -37.2234 -37.2231 -37.2228 -37.2228 -37.2225 -37.2207
   -37.2187 -37.2172 -37.2164 -37.2161 -37.2158 -37.2152 -37.2148 -37.2148
   -37.2139 -37.2138 -37.2127 -37.2127 -37.2122 -37.2105 -37.2103 -37.2102
   -37.2090 -37.2083 -37.2080 -37.2079 -37.2068 -37.2059 -37.2043 -37.2033
   -37.2027 -37.2024 -37.2019 -37.2015 -37.2011 -37.2003 -37.2001 -37.1995
   -37.1992 -37.1991 -37.1966 -37.1959 -37.1944 -37.1940 -37.1937 -37.1934
   -37.1895 -37.1894 -37.1888 -37.1884 -37.1829 -37.1824 -37.1807 -37.1802
   -37.1799 -37.1795 -37.1781 -37.1775 -37.1774 -37.1767 -37.1693 -37.1684
   -37.1592 -37.1586 -37.1586 -37.1578 -36.3315 -36.3310 -36.3011 -36.3007
   -36.2992 -36.2988 -36.2988 -36.2984 -36.2977 -36.2972 -36.2784 -36.2723
   -36.2392 -36.2389 -36.2197 -36.2194 -36.2170 -36.2164 -36.2112 -36.2107
   -36.2105 -36.2103 -36.2103 -36.2102 -36.2083 -36.2081 -36.2079 -36.2077
   -36.2074 -36.1999 -36.1992 -36.1939 -36.1936 -36.1784 -36.1675 -36.1079
   -36.1076 -36.1076 -36.0958 -36.0926 -36.0735 -36.0713 -36.0706 -36.0704
   -36.0655 -36.0653 -36.0603 -36.0599 -36.0597 -36.0592 -36.0591 -36.0589
   -36.0559 -36.0556 -36.0556 -36.0551 -36.0547 -36.0546 -36.0516 -36.0508
   -36.0469 -36.0376 -36.0368 -36.0356 -36.0352 -36.0337 -36.0323 -36.0318
   -36.0281 -36.0265 -36.0263 -36.0261 -36.0258 -36.0256 -36.0253 -36.0246
   -36.0239 -36.0230 -36.0228 -36.0219 -36.0192 -36.0186 -36.0179 -36.0156
   -36.0149 -36.0145 -36.0142 -36.0136 -36.0132 -36.0119 -36.0112 -36.0112
   -36.0108 -36.0105 -36.0103 -36.0098 -36.0086 -36.0081 -35.9905 -35.9899
   -35.9819 -35.9788 -35.9678 -35.9673 -35.9669 -35.9564 -35.9422 -35.9011
     3.4948   3.7637   3.8112   4.4507   4.5086   4.5589   4.6033   4.7204
     4.7735   4.7808   4.7835   4.9638   5.0616   5.0728   5.2269   5.2347
     5.2981   5.3373   5.3763   5.3986   5.4082   5.5621   5.5750   5.5806
     5.5888   5.5992   5.6009   5.6373   5.6726   5.6754   5.8759   5.8852
     5.8947   5.8950   6.0509   6.0519   8.6196   9.7676   9.8079   9.9386
     9.9412   9.9484  10.0218  10.1355  10.1470  10.1534  10.1555  10.1792
    10.1873  10.3166  10.3482  10.4284  10.4710  10.5035  10.5086  10.5177
    10.5258  10.5263  10.5323  10.5761  10.5872  10.6437  10.6663  10.7297
    10.7802  10.7832  10.7852  10.8469  10.9130  11.0899  11.1889  11.2324
    11.2852  11.3000  11.3064  11.3444  11.3493  11.3505  11.4650  11.5472
    11.6143  11.6951  11.7261  11.7304  11.7606  11.7636  11.7701  11.7795
    11.7956  11.8213  11.8405  11.8843  11.8894  11.9410  11.9840  11.9946
    12.0116  12.0140  12.0199  12.1319  12.1647  12.2147  12.2336  12.2406
    12.2485  12.2509  12.2557  12.3138  12.3383  12.3409  12.3611  12.3639
    12.3924  12.4336  12.4437  12.4461  12.4646  12.5058  12.5089  12.5241
    12.5298  12.5488  12.5557  12.5579  12.5656  12.5669  12.5690  12.6337
    12.6359  12.6993  12.7101  12.7149  12.7168  12.8223  12.8371  12.8684
    13.0130  13.0156  13.0202  13.0468  13.0505  13.0946  13.1927  13.4625
    13.4642  13.4665  13.4726  13.5719  13.5799  13.6222  13.6251  13.6453
    13.6470  13.6568  13.6638  13.6923  13.7005  13.7180  13.7308  13.7497
    13.7529  13.7594  13.7661  13.7721  13.7951  13.8120  13.8177  13.8269
    13.8291  13.8340  13.8450  13.8669  13.8797  13.8901  13.8917  13.9034
    13.9149  13.9199  13.9297  13.9359  13.9496  13.9547  13.9690  13.9700
    13.9733  13.9746  13.9949  14.0100  14.0156  14.0240  14.0400  14.0477
    14.0522  14.0624  14.0650  14.0739  14.0763  14.1058  14.1064  14.1145
    14.1179  14.1235  14.1393  14.1625  14.1703  14.1742  14.1768  14.1784
    14.1822  14.2092  14.2309  14.2390  14.2481  14.2519  14.2535  14.2561
    14.2634  14.2685  14.2720  14.2781  14.3005  14.3476  14.3620  14.3695
    14.5459  14.6368  14.6768  14.7185  14.7346  14.7385  14.7386  14.7454
    14.7490  14.7837  14.8274  14.8277  14.8340  14.8495  14.8588  14.8757
    14.8828  14.8898  14.8946  14.9058  14.9084  14.9160  14.9310  14.9605
    14.9608  14.9801  14.9915  15.0040  15.0112  15.0118  15.0255  15.0299
    15.0343  15.0352  15.0741  15.0745  15.0790  15.0813  15.0816  15.0864
    15.1252  15.1385  15.1631  15.1688  15.1779  15.1828  15.1868  15.1910
    15.1947  15.1966  15.1982  15.2062  15.2115  15.2130  15.2644  15.2811
    15.2851  15.3060  15.3094  15.3129  15.3141  15.3154  15.3191  15.3214
    15.3296  15.3481  15.3558  15.3703  15.3710  15.3825  15.3829  15.3851
    15.3867  15.3875  15.3893  15.4031  15.4179  15.4350  15.4415  15.4435
    15.4507  15.4540  15.4615  15.4617  15.5493  15.5563  15.5580  15.5612
    15.6068  15.6158  15.6284  15.6302  15.6332  15.6582  15.6681  15.6803
    15.6891  15.6986  15.7026  15.7111  15.7115  15.7207  15.7560  15.7585
    15.7618  15.7645  15.7689  15.7714  15.7737  15.7901  15.8028  15.8240
    15.8310  15.8336  15.8398  15.8575  15.8703  15.9148  15.9423  15.9698
    15.9778  15.9795  15.9840  15.9843  15.9868  15.9957  16.0012  16.0100
    16.0405  16.0442  16.0657  16.0714  16.0962  16.1057  16.1069  16.1119
    16.1127  16.1342  16.1496  16.1498  16.1557  16.1647  16.1650  16.1688
    16.1992  16.2039  16.2083  16.2104  16.2390  16.2410  16.2543  16.2645
    16.2726  16.2747  16.2753  16.2813  16.2835  16.2870  16.3334  16.3604
    16.3622  16.3782  16.3788  16.5094  16.5142  16.5153  16.5188  16.5215
    16.5243  16.5379  16.5453  16.5469  16.5576  16.5587  16.5644  16.5681
    16.5740  16.5787  16.5950  16.5997  16.6076  16.6077  16.6120  16.6262
    16.6798  16.7126  16.7186  16.7216  16.7389  16.7504  16.7565  16.7604
    16.7610  16.7645  16.7682  16.7996  16.8043  16.8116  16.8141  16.8158
    16.8636  16.8707  16.8742  16.8792  16.9245  16.9272  16.9517  16.9523
    17.2788  17.6046  17.6764  17.7286  17.8099  17.8102  17.8316  17.8398
    17.8990  17.9339  17.9379  17.9429  17.9452  17.9537  17.9960  18.0082
    18.0170  18.0353  18.0362  18.0429  18.0824  18.1042  18.2236  18.2348
    18.4598  18.4797  18.5173  18.5422  18.5475  18.5536  18.5762  18.5766
    18.6843  18.7924  18.8198  18.8253  18.8305  18.8691  19.0996  19.1083
    19.1329  19.1852  19.2232  19.2236  19.2515  19.2584  19.2588  19.2605
    19.2682  19.3387  19.3784  19.4381  19.4574  19.4594  19.4664  19.4722
    19.4774  19.4802  19.4827  19.7542  19.8024  19.8046  19.8093  19.8177
    19.8786  19.9064  19.9163  20.2163  20.2530  20.4329  20.4401  20.6260
    20.6771  20.9091  20.9525  20.9830  21.0005  21.0062  21.0385  21.0439

     occupation numbers 
     1.0000   1.0000   1.0000   1.0000   1.0000   1.0000   1.0000   1.0000
     1.0000   1.0000   1.0000   1.0000   1.0000   1.0000   1.0000   1.0000
     1.0000   1.0000   1.0000   1.0000   1.0000   1.0000   1.0000   1.0000
     1.0000   1.0000   1.0000   1.0000   1.0000   1.0000   1.0000   1.0000
     1.0000   1.0000   1.0000   1.0000   1.0000   1.0000   1.0000   1.0000
     1.0000   1.0000   1.0000   1.0000   1.0000   1.0000   1.0000   1.0000
     1.0000   1.0000   1.0000   1.0000   1.0000   1.0000   1.0000   1.0000
     1.0000   1.0000   1.0000   1.0000   1.0000   1.0000   1.0000   1.0000
     1.0000   1.0000   1.0000   1.0000   1.0000   1.0000   1.0000   1.0000
     1.0000   1.0000   1.0000   1.0000   1.0000   1.0000   1.0000   1.0000
     1.0000   1.0000   1.0000   1.0000   1.0000   1.0000   1.0000   1.0000
     1.0000   1.0000   1.0000   1.0000   1.0000   1.0000   1.0000   1.0000
     1.0000   1.0000   1.0000   1.0000   1.0000   1.0000   1.0000   1.0000
     1.0000   1.0000   1.0000   1.0000   1.0000   1.0000   1.0000   1.0000
     1.0000   1.0000   1.0000   1.0000   1.0000   1.0000   1.0000   1.0000
     1.0000   1.0000   1.0000   1.0000   1.0000   1.0000   1.0000   1.0000
     1.0000   1.0000   1.0000   1.0000   1.0000   1.0000   1.0000   1.0000
     1.0000   1.0000   1.0000   1.0000   1.0000   1.0000   1.0000   1.0000
     1.0000   1.0000   1.0000   1.0000   1.0000   1.0000   1.0000   1.0000
     1.0000   1.0000   1.0000   1.0000   1.0000   1.0000   1.0000   1.0000
     1.0000   1.0000   1.0000   1.0000   1.0000   1.0000   1.0000   1.0000
     1.0000   1.0000   1.0000   1.0000   1.0000   1.0000   1.0000   1.0000
     1.0000   1.0000   1.0000   1.0000   1.0000   1.0000   1.0000   1.0000
     1.0000   1.0000   1.0000   1.0000   1.0000   1.0000   1.0000   1.0000
     1.0000   1.0000   1.0000   1.0000   1.0000   1.0000   1.0000   1.0000
     1.0000   1.0000   1.0000   1.0000   1.0000   1.0000   1.0000   1.0000
     1.0000   1.0000   1.0000   1.0000   1.0000   1.0000   1.0000   1.0000
     1.0000   1.0000   1.0000   1.0000   1.0000   1.0000   1.0000   1.0000
     1.0000   1.0000   1.0000   1.0000   1.0000   1.0000   1.0000   1.0000
     1.0000   1.0000   1.0000   1.0000   1.0000   1.0000   1.0000   1.0000
     1.0000   1.0000   1.0000   1.0000   1.0000   1.0000   1.0000   1.0000
     1.0000   1.0000   1.0000   1.0000   1.0000   1.0000   1.0000   1.0000
     1.0000   1.0000   1.0000   1.0000   1.0000   1.0000   1.0000   1.0000
     1.0000   1.0000   1.0000   1.0000   1.0000   1.0000   1.0000   1.0000
     1.0000   1.0000   1.0000   1.0000   1.0000   1.0000   1.0000   1.0000
     1.0000   1.0000   1.0000   1.0000   1.0000   1.0000   1.0000   1.0000
     1.0000   1.0000   1.0000   1.0000   1.0000   1.0000   1.0000   1.0000
     1.0000   1.0000   1.0000   1.0000   1.0000   1.0000   1.0000   1.0000
     1.0000   1.0000   1.0000   1.0000   1.0000   1.0000   1.0000   1.0000
     1.0000   1.0000   1.0000   1.0000   1.0000   1.0000   1.0000   1.0000
     1.0000   1.0000   1.0000   1.0000   1.0000   1.0000   1.0000   1.0000
     1.0000   1.0000   1.0000   1.0000   1.0000   1.0000   1.0000   1.0000
     1.0000   1.0000   1.0000   1.0000   1.0000   1.0000   1.0000   1.0000
     1.0000   1.0000   1.0000   1.0000   1.0000   1.0000   1.0000   1.0000
     1.0000   1.0000   1.0000   1.0000   1.0000   1.0000   1.0000   1.0000
     1.0000   1.0000   1.0000   1.0000   1.0000   1.0000   1.0000   1.0000
     1.0000   1.0000   1.0000   1.0000   1.0000   1.0000   1.0000   1.0000
     1.0000   1.0000   1.0000   1.0000   1.0000   1.0000   1.0000   1.0000
     1.0000   1.0000   1.0000   1.0000   1.0000   1.0000   1.0000   1.0000
     1.0000   1.0000   1.0000   1.0000   1.0000   1.0000   1.0000   1.0000
     1.0000   1.0000   1.0000   1.0000   1.0000   1.0000   1.0000   1.0000
     1.0000   1.0000   1.0000   1.0000   1.0000   1.0000   1.0000   1.0000
     1.0000   1.0000   1.0000   1.0000   1.0000   1.0000   1.0000   1.0000
     1.0000   1.0000   1.0000   1.0000   1.0000   1.0000   1.0000   1.0000
     1.0000   1.0000   1.0000   1.0000   1.0000   1.0000   1.0000   1.0000
     1.0000   1.0000   1.0000   1.0000   1.0000   1.0000   1.0000   1.0000
     1.0000   1.0000   1.0000   1.0000   1.0000   1.0000   1.0000   1.0000
     1.0000   1.0000   1.0000   1.0000   1.0000   1.0000   1.0000   1.0000
     1.0000   1.0000   1.0000   1.0000   1.0000   1.0000   1.0000   1.0000
     1.0000   1.0000   1.0000   1.0000   1.0000   1.0000   1.0000   1.0000
     1.0000   1.0000   1.0000   1.0000   1.0000   1.0000   1.0000   1.0000
     1.0000   1.0000   1.0000   1.0000   1.0000   1.0000   1.0000   1.0000
     1.0000   1.0000   1.0000   1.0000   1.0000   1.0000   1.0000   1.0000
     1.0000   1.0000   1.0000   1.0000   1.0000   1.0000   1.0000   1.0000
     1.0000   1.0000   1.0000   1.0000   1.0000   1.0000   1.0000   1.0000
     1.0000   1.0000   1.0000   1.0000   1.0000   1.0000   1.0000   1.0000
     1.0000   1.0000   1.0000   1.0000   1.0000   1.0000   1.0000   1.0000
     1.0000   1.0000   1.0000   1.0000   1.0000   1.0000   1.0000   1.0000
     1.0000   1.0000   1.0000   1.0000   1.0000   1.0000   1.0000   1.0000
     1.0000   1.0000   1.0000   1.0000   1.0000   1.0000   1.0000   1.0000
     1.0000   1.0000   1.0000   1.0000   1.0000   1.0000   1.0000   1.0000
     1.0000   1.0000   1.0000   1.0000   1.0000   1.0000   1.0000   1.0000
     1.0000   1.0000   1.0000   1.0000   1.0000   1.0000   1.0000   1.0000
     1.0000   1.0000   1.0000   1.0000   1.0000   1.0000   1.0000   1.0000
     1.0000   1.0000   1.0000   1.0000   1.0000   1.0000   1.0000   1.0000
     1.0000   1.0000   1.0000   1.0000   1.0000   1.0000   1.0000   1.0000
     1.0000   1.0000   1.0000   1.0000   1.0000   1.0000   1.0000   1.0000
     1.0000   1.0000   1.0000   1.0000   1.0000   1.0000   1.0000   1.0000
     1.0000   1.0000   1.0000   1.0000   1.0000   1.0000   1.0000   1.0000
     1.0000   1.0000   1.0000   1.0000   1.0000   1.0000   1.0000   1.0000
     1.0000   1.0000   1.0000   1.0000   1.0000   1.0000   1.0000   1.0000
     1.0000   1.0000   1.0000   1.0000   1.0000   1.0000   1.0000   1.0000
     1.0000   1.0000   1.0000   1.0000   1.0000   1.0000   1.0000   1.0000
     1.0000   1.0000   1.0000   1.0000   1.0000   1.0000   1.0000   1.0000
     1.0000   1.0000   1.0000   0.9999   0.9999   0.9999   0.9998   0.9998
     0.9998   0.9998   0.9997   0.9997   0.9997   0.9997   0.9996   0.9996
     0.9995   0.9995   0.9993   0.9993   0.9992   0.9992   0.9991   0.9988
     0.9972   0.9953   0.9948   0.9946   0.9931   0.9918   0.9911   0.9906
     0.9905   0.9900   0.9895   0.9840   0.9830   0.9813   0.9807   0.9803
     0.9650   0.9620   0.9605   0.9582   0.9326   0.9307   0.9121   0.9116
     0.3647   0.0207   0.0079   0.0036   0.0009   0.0009   0.0006   0.0006
     0.0002   0.0001   0.0001   0.0001   0.0001   0.0001   0.0000   0.0000
     0.0000   0.0000   0.0000   0.0000   0.0000   0.0000   0.0000   0.0000
     0.0000   0.0000   0.0000   0.0000   0.0000   0.0000   0.0000   0.0000
     0.0000   0.0000   0.0000   0.0000   0.0000   0.0000   0.0000   0.0000
     0.0000   0.0000   0.0000   0.0000   0.0000   0.0000   0.0000   0.0000
     0.0000   0.0000   0.0000   0.0000   0.0000   0.0000   0.0000   0.0000
     0.0000   0.0000   0.0000   0.0000   0.0000   0.0000   0.0000   0.0000
     0.0000   0.0000   0.0000   0.0000   0.0000   0.0000   0.0000   0.0000
     0.0000   0.0000   0.0000   0.0000   0.0000   0.0000   0.0000   0.0000

          k =-0.2500 0.4330-0.2850 (100562 PWs)   bands (ev):

   -71.1988 -71.1924 -71.1921 -71.1809 -71.1805 -71.1795 -71.1793 -71.1791
   -71.1789 -71.1759 -71.1758 -71.1741 -71.1739 -71.1720 -71.1718 -71.1717
   -71.1714 -71.1713 -71.1712 -71.1711 -71.1710 -71.1707 -71.1705 -71.1688
   -71.1676 -71.1674 -71.1499 -71.1497 -71.1494 -71.1492 -71.1348 -71.1347
   -71.1343 -71.1341 -71.1333 -71.1332 -70.0716 -70.0715 -70.0189 -70.0188
   -70.0182 -70.0181 -70.0106 -70.0105 -70.0101 -70.0100 -70.0098 -70.0097
   -70.0060 -70.0057 -70.0056 -70.0012 -70.0003 -69.9988 -69.9987 -69.9984
   -69.9983 -69.9983 -69.9982 -69.9979 -69.9964 -69.9962 -69.9960 -69.9959
   -69.9843 -69.9796 -69.9789 -69.9747 -69.9683 -69.9682 -69.9247 -69.8930
   -37.3421 -37.3266 -37.3260 -37.3132 -37.3128 -37.3117 -37.3116 -37.3111
   -37.3100 -37.3092 -37.3090 -37.3088 -37.3077 -37.3059 -37.3058 -37.3055
   -37.3050 -37.3046 -37.3044 -37.3017 -37.3014 -37.3004 -37.2995 -37.2995
   -37.2968 -37.2963 -37.2828 -37.2820 -37.2787 -37.2782 -37.2667 -37.2658
   -37.2620 -37.2615 -37.2549 -37.2520 -37.2377 -37.2347 -37.2339 -37.2293
   -37.2252 -37.2246 -37.2233 -37.2231 -37.2229 -37.2227 -37.2224 -37.2207
   -37.2187 -37.2171 -37.2164 -37.2161 -37.2158 -37.2152 -37.2149 -37.2147
   -37.2138 -37.2138 -37.2127 -37.2127 -37.2122 -37.2105 -37.2103 -37.2101
   -37.2090 -37.2083 -37.2081 -37.2079 -37.2068 -37.2059 -37.2042 -37.2032
   -37.2026 -37.2024 -37.2020 -37.2014 -37.2011 -37.2003 -37.2000 -37.1995
   -37.1993 -37.1990 -37.1966 -37.1958 -37.1943 -37.1940 -37.1937 -37.1933
   -37.1895 -37.1894 -37.1888 -37.1884 -37.1829 -37.1823 -37.1807 -37.1802
   -37.1799 -37.1795 -37.1781 -37.1775 -37.1774 -37.1767 -37.1693 -37.1684
   -37.1592 -37.1586 -37.1586 -37.1578 -36.3315 -36.3310 -36.3011 -36.3006
   -36.2992 -36.2989 -36.2988 -36.2983 -36.2977 -36.2972 -36.2783 -36.2723
   -36.2392 -36.2389 -36.2196 -36.2194 -36.2169 -36.2164 -36.2111 -36.2107
   -36.2105 -36.2103 -36.2103 -36.2102 -36.2083 -36.2081 -36.2079 -36.2076
   -36.2074 -36.1998 -36.1991 -36.1939 -36.1936 -36.1784 -36.1675 -36.1079
   -36.1076 -36.1076 -36.0958 -36.0926 -36.0735 -36.0712 -36.0707 -36.0703
   -36.0655 -36.0653 -36.0603 -36.0599 -36.0597 -36.0592 -36.0592 -36.0588
   -36.0559 -36.0556 -36.0556 -36.0551 -36.0547 -36.0546 -36.0516 -36.0508
   -36.0468 -36.0376 -36.0369 -36.0356 -36.0352 -36.0335 -36.0325 -36.0319
   -36.0279 -36.0264 -36.0263 -36.0260 -36.0258 -36.0256 -36.0252 -36.0246
   -36.0242 -36.0232 -36.0228 -36.0210 -36.0192 -36.0185 -36.0183 -36.0160
   -36.0154 -36.0148 -36.0137 -36.0134 -36.0126 -36.0115 -36.0112 -36.0110
   -36.0108 -36.0105 -36.0102 -36.0101 -36.0088 -36.0083 -35.9905 -35.9899
   -35.9820 -35.9787 -35.9678 -35.9673 -35.9669 -35.9564 -35.9422 -35.9011
     3.5652   3.8290   3.8793   4.1122   4.3457   4.3905   4.5363   4.6526
     4.9375   4.9711   5.0152   5.0680   5.1089   5.1170   5.1587   5.1838
     5.3357   5.3614   5.4062   5.4169   5.4366   5.4469   5.4828   5.5692
     5.5976   5.6390   5.6480   5.6586   5.6713   5.7083   5.7190   5.7814
     5.9031   6.0215   6.0370   6.1681   8.6131   9.7012   9.8308   9.8640
     9.9233   9.9422   9.9660  10.0010  10.0376  10.0800  10.0924  10.1414
    10.1835  10.1864  10.1987  10.2248  10.2356  10.3118  10.3842  10.4198
    10.4612  10.4923  10.5347  10.5501  10.5939  10.6206  10.6990  10.8457
    10.8524  11.0324  11.1106  11.1194  11.1656  11.2215  11.2273  11.2882
    11.3460  11.4009  11.4581  11.4659  11.4794  11.5199  11.5445  11.5833
    11.6478  11.7097  11.7433  11.7802  11.7882  11.8246  11.8514  11.8577
    11.8611  11.8698  11.8801  11.9261  11.9750  11.9913  12.0198  12.0355
    12.0832  12.0903  12.1021  12.1119  12.1238  12.1312  12.1393  12.1496
    12.1604  12.1946  12.2341  12.2780  12.2855  12.2961  12.3083  12.3347
    12.3516  12.3925  12.4061  12.4159  12.4399  12.4553  12.4671  12.4790
    12.4867  12.5078  12.5327  12.5527  12.5540  12.6281  12.6384  12.6444
    12.6566  12.6748  12.7221  12.7509  12.7781  12.8435  12.8519  12.8565
    12.9070  12.9337  12.9529  12.9652  13.0078  13.0345  13.1111  13.1781
    13.2005  13.5689  13.5913  13.6221  13.6310  13.6339  13.6367  13.6481
    13.6548  13.6675  13.6719  13.6869  13.6986  13.7054  13.7160  13.7355
    13.7407  13.7523  13.7655  13.7679  13.7764  13.7984  13.8213  13.8250
    13.8478  13.8565  13.8625  13.8648  13.8715  13.8853  13.8881  13.8915
    13.8984  13.9090  13.9238  13.9283  13.9370  13.9392  13.9452  13.9580
    13.9613  13.9625  13.9667  14.0180  14.0230  14.0257  14.0366  14.0431
    14.0569  14.0722  14.0749  14.0837  14.0865  14.0946  14.0995  14.1048
    14.1105  14.1138  14.1211  14.1353  14.1396  14.1621  14.1897  14.1987
    14.2041  14.2093  14.2158  14.2254  14.2302  14.2319  14.2356  14.2402
    14.2471  14.2744  14.3195  14.3218  14.3723  14.3916  14.4017  14.4054
    14.4796  14.5782  14.5961  14.5985  14.6833  14.7559  14.7789  14.8228
    14.8382  14.8435  14.8691  14.8765  14.8885  14.8920  14.9010  14.9124
    14.9149  14.9223  14.9331  14.9470  14.9531  14.9662  14.9802  14.9855
    14.9902  14.9956  15.0017  15.0069  15.0113  15.0172  15.0292  15.0309
    15.0364  15.0445  15.0609  15.0655  15.0685  15.0894  15.0904  15.0979
    15.1100  15.1202  15.1253  15.1282  15.1378  15.1432  15.1549  15.1593
    15.1662  15.1798  15.1866  15.2022  15.2099  15.2325  15.2393  15.2450
    15.2493  15.2522  15.2602  15.2714  15.2757  15.2797  15.2920  15.3094
    15.3135  15.3165  15.3257  15.3446  15.3751  15.3851  15.3988  15.4028
    15.4088  15.4132  15.4163  15.4211  15.4359  15.4712  15.4787  15.4875
    15.4940  15.5040  15.5220  15.5346  15.5410  15.5451  15.5525  15.5632
    15.6009  15.6016  15.6070  15.6161  15.6187  15.6314  15.6375  15.6577
    15.6733  15.6974  15.7016  15.7223  15.7286  15.7308  15.7338  15.7441
    15.7474  15.7656  15.7841  15.7978  15.8042  15.8155  15.8400  15.8451
    15.8623  15.8800  15.8894  15.8921  15.8991  15.8999  15.9090  15.9133
    15.9250  15.9336  15.9435  15.9696  15.9779  15.9885  15.9918  16.0207
    16.0299  16.0357  16.0503  16.0537  16.0647  16.0684  16.0741  16.0756
    16.0804  16.1278  16.1370  16.1433  16.1452  16.1511  16.1549  16.1566
    16.1606  16.1875  16.1974  16.2030  16.2069  16.2104  16.2289  16.2488
    16.2562  16.2717  16.2799  16.2870  16.2933  16.3038  16.3123  16.3243
    16.3669  16.3945  16.4257  16.4328  16.4443  16.4446  16.5193  16.5217
    16.5261  16.5475  16.5593  16.5627  16.5643  16.5704  16.5725  16.5767
    16.5799  16.5803  16.5927  16.5994  16.6006  16.6105  16.6630  16.6728
    16.6737  16.6775  16.7473  16.7530  16.7647  16.7735  16.7755  16.7783
    16.7869  16.7928  16.8032  16.8118  16.8178  16.8242  16.8435  16.8646
    16.8901  16.8965  16.9082  16.9097  16.9497  16.9569  17.0354  17.1168
    17.2143  17.4628  17.6233  17.6935  17.7006  17.7365  17.7523  17.7819
    17.7975  17.8928  17.9070  17.9186  17.9475  17.9834  17.9907  18.0115
    18.0466  18.0487  18.0640  18.0836  18.0904  18.3303  18.3591  18.4005
    18.4140  18.5625  18.5674  18.5832  18.6148  18.6202  18.6401  18.6492
    18.6841  18.6997  18.7785  18.7990  18.8310  18.8798  18.9106  18.9197
    18.9983  19.1290  19.1571  19.1624  19.1727  19.2320  19.2446  19.2545
    19.2630  19.3513  19.3576  19.3757  19.3894  19.4120  19.4242  19.4624
    19.4744  19.5619  19.6019  19.6856  19.6964  19.7066  19.7573  19.7948
    19.8311  19.8336  19.8496  20.0347  20.0519  20.2214  20.2453  20.2571
    20.4534  20.7564  20.8092  20.8954  21.0090  21.1039  21.4056  21.4575

     occupation numbers 
     1.0000   1.0000   1.0000   1.0000   1.0000   1.0000   1.0000   1.0000
     1.0000   1.0000   1.0000   1.0000   1.0000   1.0000   1.0000   1.0000
     1.0000   1.0000   1.0000   1.0000   1.0000   1.0000   1.0000   1.0000
     1.0000   1.0000   1.0000   1.0000   1.0000   1.0000   1.0000   1.0000
     1.0000   1.0000   1.0000   1.0000   1.0000   1.0000   1.0000   1.0000
     1.0000   1.0000   1.0000   1.0000   1.0000   1.0000   1.0000   1.0000
     1.0000   1.0000   1.0000   1.0000   1.0000   1.0000   1.0000   1.0000
     1.0000   1.0000   1.0000   1.0000   1.0000   1.0000   1.0000   1.0000
     1.0000   1.0000   1.0000   1.0000   1.0000   1.0000   1.0000   1.0000
     1.0000   1.0000   1.0000   1.0000   1.0000   1.0000   1.0000   1.0000
     1.0000   1.0000   1.0000   1.0000   1.0000   1.0000   1.0000   1.0000
     1.0000   1.0000   1.0000   1.0000   1.0000   1.0000   1.0000   1.0000
     1.0000   1.0000   1.0000   1.0000   1.0000   1.0000   1.0000   1.0000
     1.0000   1.0000   1.0000   1.0000   1.0000   1.0000   1.0000   1.0000
     1.0000   1.0000   1.0000   1.0000   1.0000   1.0000   1.0000   1.0000
     1.0000   1.0000   1.0000   1.0000   1.0000   1.0000   1.0000   1.0000
     1.0000   1.0000   1.0000   1.0000   1.0000   1.0000   1.0000   1.0000
     1.0000   1.0000   1.0000   1.0000   1.0000   1.0000   1.0000   1.0000
     1.0000   1.0000   1.0000   1.0000   1.0000   1.0000   1.0000   1.0000
     1.0000   1.0000   1.0000   1.0000   1.0000   1.0000   1.0000   1.0000
     1.0000   1.0000   1.0000   1.0000   1.0000   1.0000   1.0000   1.0000
     1.0000   1.0000   1.0000   1.0000   1.0000   1.0000   1.0000   1.0000
     1.0000   1.0000   1.0000   1.0000   1.0000   1.0000   1.0000   1.0000
     1.0000   1.0000   1.0000   1.0000   1.0000   1.0000   1.0000   1.0000
     1.0000   1.0000   1.0000   1.0000   1.0000   1.0000   1.0000   1.0000
     1.0000   1.0000   1.0000   1.0000   1.0000   1.0000   1.0000   1.0000
     1.0000   1.0000   1.0000   1.0000   1.0000   1.0000   1.0000   1.0000
     1.0000   1.0000   1.0000   1.0000   1.0000   1.0000   1.0000   1.0000
     1.0000   1.0000   1.0000   1.0000   1.0000   1.0000   1.0000   1.0000
     1.0000   1.0000   1.0000   1.0000   1.0000   1.0000   1.0000   1.0000
     1.0000   1.0000   1.0000   1.0000   1.0000   1.0000   1.0000   1.0000
     1.0000   1.0000   1.0000   1.0000   1.0000   1.0000   1.0000   1.0000
     1.0000   1.0000   1.0000   1.0000   1.0000   1.0000   1.0000   1.0000
     1.0000   1.0000   1.0000   1.0000   1.0000   1.0000   1.0000   1.0000
     1.0000   1.0000   1.0000   1.0000   1.0000   1.0000   1.0000   1.0000
     1.0000   1.0000   1.0000   1.0000   1.0000   1.0000   1.0000   1.0000
     1.0000   1.0000   1.0000   1.0000   1.0000   1.0000   1.0000   1.0000
     1.0000   1.0000   1.0000   1.0000   1.0000   1.0000   1.0000   1.0000
     1.0000   1.0000   1.0000   1.0000   1.0000   1.0000   1.0000   1.0000
     1.0000   1.0000   1.0000   1.0000   1.0000   1.0000   1.0000   1.0000
     1.0000   1.0000   1.0000   1.0000   1.0000   1.0000   1.0000   1.0000
     1.0000   1.0000   1.0000   1.0000   1.0000   1.0000   1.0000   1.0000
     1.0000   1.0000   1.0000   1.0000   1.0000   1.0000   1.0000   1.0000
     1.0000   1.0000   1.0000   1.0000   1.0000   1.0000   1.0000   1.0000
     1.0000   1.0000   1.0000   1.0000   1.0000   1.0000   1.0000   1.0000
     1.0000   1.0000   1.0000   1.0000   1.0000   1.0000   1.0000   1.0000
     1.0000   1.0000   1.0000   1.0000   1.0000   1.0000   1.0000   1.0000
     1.0000   1.0000   1.0000   1.0000   1.0000   1.0000   1.0000   1.0000
     1.0000   1.0000   1.0000   1.0000   1.0000   1.0000   1.0000   1.0000
     1.0000   1.0000   1.0000   1.0000   1.0000   1.0000   1.0000   1.0000
     1.0000   1.0000   1.0000   1.0000   1.0000   1.0000   1.0000   1.0000
     1.0000   1.0000   1.0000   1.0000   1.0000   1.0000   1.0000   1.0000
     1.0000   1.0000   1.0000   1.0000   1.0000   1.0000   1.0000   1.0000
     1.0000   1.0000   1.0000   1.0000   1.0000   1.0000   1.0000   1.0000
     1.0000   1.0000   1.0000   1.0000   1.0000   1.0000   1.0000   1.0000
     1.0000   1.0000   1.0000   1.0000   1.0000   1.0000   1.0000   1.0000
     1.0000   1.0000   1.0000   1.0000   1.0000   1.0000   1.0000   1.0000
     1.0000   1.0000   1.0000   1.0000   1.0000   1.0000   1.0000   1.0000
     1.0000   1.0000   1.0000   1.0000   1.0000   1.0000   1.0000   1.0000
     1.0000   1.0000   1.0000   1.0000   1.0000   1.0000   1.0000   1.0000
     1.0000   1.0000   1.0000   1.0000   1.0000   1.0000   1.0000   1.0000
     1.0000   1.0000   1.0000   1.0000   1.0000   1.0000   1.0000   1.0000
     1.0000   1.0000   1.0000   1.0000   1.0000   1.0000   1.0000   1.0000
     1.0000   1.0000   1.0000   1.0000   1.0000   1.0000   1.0000   1.0000
     1.0000   1.0000   1.0000   1.0000   1.0000   1.0000   1.0000   1.0000
     1.0000   1.0000   1.0000   1.0000   1.0000   1.0000   1.0000   1.0000
     1.0000   1.0000   1.0000   1.0000   1.0000   1.0000   1.0000   1.0000
     1.0000   1.0000   1.0000   1.0000   1.0000   1.0000   1.0000   1.0000
     1.0000   1.0000   1.0000   1.0000   1.0000   1.0000   1.0000   1.0000
     1.0000   1.0000   1.0000   1.0000   1.0000   1.0000   1.0000   1.0000
     1.0000   1.0000   1.0000   1.0000   1.0000   1.0000   1.0000   1.0000
     1.0000   1.0000   1.0000   1.0000   1.0000   1.0000   1.0000   1.0000
     1.0000   1.0000   1.0000   1.0000   1.0000   1.0000   1.0000   1.0000
     1.0000   1.0000   1.0000   1.0000   1.0000   1.0000   1.0000   1.0000
     1.0000   1.0000   1.0000   1.0000   1.0000   1.0000   1.0000   1.0000
     1.0000   1.0000   1.0000   1.0000   1.0000   1.0000   1.0000   1.0000
     1.0000   1.0000   1.0000   1.0000   1.0000   1.0000   1.0000   1.0000
     1.0000   1.0000   1.0000   1.0000   1.0000   1.0000   1.0000   1.0000
     1.0000   1.0000   1.0000   1.0000   1.0000   1.0000   1.0000   1.0000
     1.0000   1.0000   1.0000   1.0000   1.0000   1.0000   1.0000   1.0000
     1.0000   1.0000   1.0000   1.0000   1.0000   1.0000   1.0000   1.0000
     1.0000   1.0000   1.0000   1.0000   1.0000   1.0000   1.0000   1.0000
     1.0000   1.0000   1.0000   1.0000   1.0000   1.0000   1.0000   1.0000
     1.0000   1.0000   1.0000   1.0000   1.0000   1.0000   1.0000   1.0000
     1.0000   1.0000   1.0000   1.0000   1.0000   1.0000   0.9998   0.9998
     0.9998   0.9997   0.9997   0.9996   0.9996   0.9996   0.9996   0.9995
     0.9995   0.9995   0.9994   0.9993   0.9993   0.9991   0.9978   0.9975
     0.9974   0.9973   0.9922   0.9915   0.9900   0.9887   0.9884   0.9879
     0.9865   0.9853   0.9832   0.9813   0.9798   0.9781   0.9723   0.9646
     0.9529   0.9496   0.9430   0.9420   0.9137   0.9077   0.8209   0.6900
     0.4956   0.0963   0.0163   0.0062   0.0056   0.0032   0.0025   0.0015
     0.0012   0.0002   0.0002   0.0001   0.0001   0.0000   0.0000   0.0000
     0.0000   0.0000   0.0000   0.0000   0.0000   0.0000   0.0000   0.0000
     0.0000   0.0000   0.0000   0.0000   0.0000   0.0000   0.0000   0.0000
     0.0000   0.0000   0.0000   0.0000   0.0000   0.0000   0.0000   0.0000
     0.0000   0.0000   0.0000   0.0000   0.0000   0.0000   0.0000   0.0000
     0.0000   0.0000   0.0000   0.0000   0.0000   0.0000   0.0000   0.0000
     0.0000   0.0000   0.0000   0.0000   0.0000   0.0000   0.0000   0.0000
     0.0000   0.0000   0.0000   0.0000   0.0000   0.0000   0.0000   0.0000
     0.0000   0.0000   0.0000   0.0000   0.0000   0.0000   0.0000   0.0000

          k = 0.2500-0.4330-0.2850 (100562 PWs)   bands (ev):

   -71.1988 -71.1924 -71.1921 -71.1809 -71.1805 -71.1795 -71.1793 -71.1791
   -71.1789 -71.1759 -71.1758 -71.1741 -71.1739 -71.1720 -71.1718 -71.1717
   -71.1714 -71.1713 -71.1712 -71.1711 -71.1710 -71.1707 -71.1705 -71.1688
   -71.1676 -71.1674 -71.1499 -71.1497 -71.1494 -71.1492 -71.1348 -71.1347
   -71.1343 -71.1341 -71.1333 -71.1332 -70.0716 -70.0715 -70.0189 -70.0188
   -70.0182 -70.0181 -70.0106 -70.0105 -70.0101 -70.0100 -70.0098 -70.0097
   -70.0060 -70.0057 -70.0056 -70.0012 -70.0003 -69.9988 -69.9987 -69.9984
   -69.9983 -69.9983 -69.9982 -69.9979 -69.9964 -69.9962 -69.9960 -69.9959
   -69.9843 -69.9796 -69.9789 -69.9747 -69.9683 -69.9682 -69.9247 -69.8930
   -37.3421 -37.3266 -37.3260 -37.3132 -37.3128 -37.3117 -37.3116 -37.3111
   -37.3100 -37.3092 -37.3090 -37.3088 -37.3077 -37.3059 -37.3058 -37.3055
   -37.3050 -37.3046 -37.3044 -37.3017 -37.3014 -37.3004 -37.2995 -37.2995
   -37.2968 -37.2963 -37.2828 -37.2820 -37.2787 -37.2782 -37.2667 -37.2658
   -37.2620 -37.2615 -37.2549 -37.2520 -37.2377 -37.2347 -37.2339 -37.2293
   -37.2252 -37.2246 -37.2233 -37.2231 -37.2229 -37.2227 -37.2224 -37.2207
   -37.2187 -37.2171 -37.2164 -37.2161 -37.2158 -37.2152 -37.2149 -37.2147
   -37.2138 -37.2138 -37.2127 -37.2127 -37.2122 -37.2105 -37.2103 -37.2101
   -37.2090 -37.2083 -37.2081 -37.2079 -37.2068 -37.2059 -37.2042 -37.2032
   -37.2026 -37.2024 -37.2020 -37.2014 -37.2011 -37.2003 -37.2000 -37.1995
   -37.1993 -37.1990 -37.1966 -37.1958 -37.1943 -37.1940 -37.1937 -37.1933
   -37.1895 -37.1894 -37.1888 -37.1884 -37.1829 -37.1823 -37.1807 -37.1802
   -37.1799 -37.1795 -37.1781 -37.1775 -37.1774 -37.1767 -37.1693 -37.1684
   -37.1592 -37.1586 -37.1586 -37.1578 -36.3315 -36.3310 -36.3011 -36.3006
   -36.2992 -36.2989 -36.2988 -36.2983 -36.2977 -36.2972 -36.2783 -36.2723
   -36.2392 -36.2389 -36.2196 -36.2194 -36.2169 -36.2164 -36.2111 -36.2107
   -36.2105 -36.2103 -36.2103 -36.2102 -36.2083 -36.2081 -36.2079 -36.2076
   -36.2074 -36.1998 -36.1991 -36.1939 -36.1936 -36.1784 -36.1675 -36.1079
   -36.1076 -36.1076 -36.0958 -36.0926 -36.0735 -36.0712 -36.0707 -36.0703
   -36.0655 -36.0653 -36.0603 -36.0599 -36.0597 -36.0592 -36.0592 -36.0588
   -36.0559 -36.0556 -36.0556 -36.0551 -36.0547 -36.0546 -36.0516 -36.0508
   -36.0468 -36.0376 -36.0369 -36.0356 -36.0352 -36.0335 -36.0325 -36.0319
   -36.0279 -36.0264 -36.0263 -36.0260 -36.0258 -36.0256 -36.0252 -36.0246
   -36.0242 -36.0232 -36.0228 -36.0210 -36.0192 -36.0185 -36.0183 -36.0160
   -36.0154 -36.0148 -36.0137 -36.0134 -36.0126 -36.0115 -36.0112 -36.0110
   -36.0108 -36.0105 -36.0102 -36.0101 -36.0088 -36.0083 -35.9905 -35.9899
   -35.9820 -35.9787 -35.9678 -35.9673 -35.9669 -35.9564 -35.9422 -35.9011
     3.5652   3.8290   3.8793   4.1122   4.3457   4.3905   4.5363   4.6526
     4.9375   4.9711   5.0152   5.0680   5.1089   5.1170   5.1587   5.1838
     5.3357   5.3614   5.4062   5.4169   5.4366   5.4469   5.4828   5.5692
     5.5976   5.6390   5.6480   5.6586   5.6713   5.7083   5.7190   5.7814
     5.9031   6.0215   6.0370   6.1681   8.6131   9.7012   9.8308   9.8640
     9.9233   9.9422   9.9660  10.0010  10.0376  10.0800  10.0924  10.1414
    10.1835  10.1864  10.1987  10.2248  10.2356  10.3118  10.3842  10.4198
    10.4612  10.4923  10.5347  10.5501  10.5939  10.6206  10.6990  10.8457
    10.8524  11.0324  11.1106  11.1194  11.1656  11.2215  11.2273  11.2882
    11.3460  11.4009  11.4581  11.4659  11.4794  11.5199  11.5445  11.5833
    11.6478  11.7097  11.7433  11.7802  11.7882  11.8246  11.8514  11.8577
    11.8611  11.8698  11.8801  11.9261  11.9750  11.9913  12.0198  12.0355
    12.0832  12.0903  12.1021  12.1119  12.1238  12.1312  12.1393  12.1496
    12.1604  12.1946  12.2341  12.2780  12.2855  12.2961  12.3083  12.3347
    12.3516  12.3925  12.4061  12.4159  12.4399  12.4553  12.4671  12.4790
    12.4867  12.5078  12.5327  12.5527  12.5540  12.6281  12.6384  12.6444
    12.6566  12.6748  12.7221  12.7509  12.7781  12.8435  12.8519  12.8565
    12.9070  12.9337  12.9529  12.9652  13.0078  13.0345  13.1111  13.1781
    13.2005  13.5689  13.5913  13.6221  13.6310  13.6339  13.6367  13.6481
    13.6548  13.6675  13.6719  13.6869  13.6986  13.7054  13.7160  13.7355
    13.7407  13.7523  13.7655  13.7679  13.7764  13.7983  13.8213  13.8250
    13.8478  13.8565  13.8625  13.8648  13.8715  13.8853  13.8881  13.8915
    13.8984  13.9090  13.9238  13.9283  13.9370  13.9392  13.9452  13.9580
    13.9613  13.9625  13.9667  14.0180  14.0230  14.0257  14.0366  14.0431
    14.0569  14.0722  14.0749  14.0837  14.0865  14.0946  14.0995  14.1048
    14.1105  14.1138  14.1211  14.1353  14.1396  14.1621  14.1897  14.1987
    14.2041  14.2093  14.2158  14.2254  14.2302  14.2319  14.2356  14.2402
    14.2471  14.2744  14.3195  14.3218  14.3723  14.3916  14.4017  14.4054
    14.4796  14.5782  14.5961  14.5985  14.6833  14.7559  14.7789  14.8228
    14.8382  14.8435  14.8691  14.8765  14.8885  14.8920  14.9010  14.9124
    14.9149  14.9223  14.9331  14.9470  14.9531  14.9662  14.9802  14.9854
    14.9902  14.9956  15.0017  15.0069  15.0113  15.0172  15.0292  15.0309
    15.0364  15.0445  15.0609  15.0655  15.0685  15.0894  15.0904  15.0979
    15.1100  15.1202  15.1253  15.1282  15.1378  15.1432  15.1549  15.1593
    15.1662  15.1798  15.1866  15.2022  15.2099  15.2325  15.2393  15.2450
    15.2493  15.2522  15.2602  15.2714  15.2757  15.2796  15.2920  15.3094
    15.3135  15.3165  15.3257  15.3446  15.3751  15.3851  15.3988  15.4028
    15.4088  15.4132  15.4163  15.4211  15.4359  15.4712  15.4787  15.4875
    15.4940  15.5040  15.5220  15.5346  15.5410  15.5451  15.5525  15.5632
    15.6009  15.6016  15.6070  15.6161  15.6187  15.6314  15.6375  15.6577
    15.6733  15.6974  15.7016  15.7223  15.7286  15.7308  15.7338  15.7441
    15.7474  15.7656  15.7841  15.7978  15.8042  15.8155  15.8400  15.8451
    15.8623  15.8800  15.8894  15.8921  15.8991  15.8999  15.9090  15.9133
    15.9250  15.9336  15.9435  15.9696  15.9779  15.9885  15.9918  16.0207
    16.0299  16.0357  16.0503  16.0537  16.0647  16.0684  16.0741  16.0756
    16.0804  16.1278  16.1370  16.1433  16.1452  16.1511  16.1549  16.1566
    16.1606  16.1875  16.1974  16.2030  16.2069  16.2104  16.2289  16.2488
    16.2562  16.2717  16.2799  16.2870  16.2933  16.3038  16.3123  16.3243
    16.3669  16.3945  16.4257  16.4328  16.4443  16.4446  16.5193  16.5217
    16.5261  16.5475  16.5593  16.5627  16.5643  16.5704  16.5725  16.5767
    16.5799  16.5803  16.5927  16.5994  16.6006  16.6105  16.6630  16.6728
    16.6737  16.6775  16.7473  16.7530  16.7647  16.7735  16.7755  16.7783
    16.7869  16.7928  16.8032  16.8118  16.8178  16.8242  16.8435  16.8646
    16.8901  16.8965  16.9082  16.9097  16.9497  16.9569  17.0354  17.1168
    17.2143  17.4629  17.6233  17.6935  17.7006  17.7365  17.7523  17.7819
    17.7975  17.8928  17.9070  17.9186  17.9475  17.9834  17.9907  18.0115
    18.0466  18.0487  18.0640  18.0836  18.0904  18.3303  18.3591  18.4005
    18.4140  18.5625  18.5674  18.5832  18.6148  18.6202  18.6401  18.6492
    18.6841  18.6997  18.7785  18.7990  18.8310  18.8798  18.9106  18.9197
    18.9983  19.1290  19.1571  19.1624  19.1727  19.2320  19.2446  19.2545
    19.2630  19.3513  19.3576  19.3757  19.3894  19.4120  19.4242  19.4624
    19.4744  19.5619  19.6019  19.6856  19.6964  19.7066  19.7573  19.7948
    19.8311  19.8336  19.8496  20.0347  20.0519  20.2214  20.2453  20.2571
    20.4534  20.7564  20.8092  20.8954  21.0090  21.1039  21.4056  21.4575

     occupation numbers 
     1.0000   1.0000   1.0000   1.0000   1.0000   1.0000   1.0000   1.0000
     1.0000   1.0000   1.0000   1.0000   1.0000   1.0000   1.0000   1.0000
     1.0000   1.0000   1.0000   1.0000   1.0000   1.0000   1.0000   1.0000
     1.0000   1.0000   1.0000   1.0000   1.0000   1.0000   1.0000   1.0000
     1.0000   1.0000   1.0000   1.0000   1.0000   1.0000   1.0000   1.0000
     1.0000   1.0000   1.0000   1.0000   1.0000   1.0000   1.0000   1.0000
     1.0000   1.0000   1.0000   1.0000   1.0000   1.0000   1.0000   1.0000
     1.0000   1.0000   1.0000   1.0000   1.0000   1.0000   1.0000   1.0000
     1.0000   1.0000   1.0000   1.0000   1.0000   1.0000   1.0000   1.0000
     1.0000   1.0000   1.0000   1.0000   1.0000   1.0000   1.0000   1.0000
     1.0000   1.0000   1.0000   1.0000   1.0000   1.0000   1.0000   1.0000
     1.0000   1.0000   1.0000   1.0000   1.0000   1.0000   1.0000   1.0000
     1.0000   1.0000   1.0000   1.0000   1.0000   1.0000   1.0000   1.0000
     1.0000   1.0000   1.0000   1.0000   1.0000   1.0000   1.0000   1.0000
     1.0000   1.0000   1.0000   1.0000   1.0000   1.0000   1.0000   1.0000
     1.0000   1.0000   1.0000   1.0000   1.0000   1.0000   1.0000   1.0000
     1.0000   1.0000   1.0000   1.0000   1.0000   1.0000   1.0000   1.0000
     1.0000   1.0000   1.0000   1.0000   1.0000   1.0000   1.0000   1.0000
     1.0000   1.0000   1.0000   1.0000   1.0000   1.0000   1.0000   1.0000
     1.0000   1.0000   1.0000   1.0000   1.0000   1.0000   1.0000   1.0000
     1.0000   1.0000   1.0000   1.0000   1.0000   1.0000   1.0000   1.0000
     1.0000   1.0000   1.0000   1.0000   1.0000   1.0000   1.0000   1.0000
     1.0000   1.0000   1.0000   1.0000   1.0000   1.0000   1.0000   1.0000
     1.0000   1.0000   1.0000   1.0000   1.0000   1.0000   1.0000   1.0000
     1.0000   1.0000   1.0000   1.0000   1.0000   1.0000   1.0000   1.0000
     1.0000   1.0000   1.0000   1.0000   1.0000   1.0000   1.0000   1.0000
     1.0000   1.0000   1.0000   1.0000   1.0000   1.0000   1.0000   1.0000
     1.0000   1.0000   1.0000   1.0000   1.0000   1.0000   1.0000   1.0000
     1.0000   1.0000   1.0000   1.0000   1.0000   1.0000   1.0000   1.0000
     1.0000   1.0000   1.0000   1.0000   1.0000   1.0000   1.0000   1.0000
     1.0000   1.0000   1.0000   1.0000   1.0000   1.0000   1.0000   1.0000
     1.0000   1.0000   1.0000   1.0000   1.0000   1.0000   1.0000   1.0000
     1.0000   1.0000   1.0000   1.0000   1.0000   1.0000   1.0000   1.0000
     1.0000   1.0000   1.0000   1.0000   1.0000   1.0000   1.0000   1.0000
     1.0000   1.0000   1.0000   1.0000   1.0000   1.0000   1.0000   1.0000
     1.0000   1.0000   1.0000   1.0000   1.0000   1.0000   1.0000   1.0000
     1.0000   1.0000   1.0000   1.0000   1.0000   1.0000   1.0000   1.0000
     1.0000   1.0000   1.0000   1.0000   1.0000   1.0000   1.0000   1.0000
     1.0000   1.0000   1.0000   1.0000   1.0000   1.0000   1.0000   1.0000
     1.0000   1.0000   1.0000   1.0000   1.0000   1.0000   1.0000   1.0000
     1.0000   1.0000   1.0000   1.0000   1.0000   1.0000   1.0000   1.0000
     1.0000   1.0000   1.0000   1.0000   1.0000   1.0000   1.0000   1.0000
     1.0000   1.0000   1.0000   1.0000   1.0000   1.0000   1.0000   1.0000
     1.0000   1.0000   1.0000   1.0000   1.0000   1.0000   1.0000   1.0000
     1.0000   1.0000   1.0000   1.0000   1.0000   1.0000   1.0000   1.0000
     1.0000   1.0000   1.0000   1.0000   1.0000   1.0000   1.0000   1.0000
     1.0000   1.0000   1.0000   1.0000   1.0000   1.0000   1.0000   1.0000
     1.0000   1.0000   1.0000   1.0000   1.0000   1.0000   1.0000   1.0000
     1.0000   1.0000   1.0000   1.0000   1.0000   1.0000   1.0000   1.0000
     1.0000   1.0000   1.0000   1.0000   1.0000   1.0000   1.0000   1.0000
     1.0000   1.0000   1.0000   1.0000   1.0000   1.0000   1.0000   1.0000
     1.0000   1.0000   1.0000   1.0000   1.0000   1.0000   1.0000   1.0000
     1.0000   1.0000   1.0000   1.0000   1.0000   1.0000   1.0000   1.0000
     1.0000   1.0000   1.0000   1.0000   1.0000   1.0000   1.0000   1.0000
     1.0000   1.0000   1.0000   1.0000   1.0000   1.0000   1.0000   1.0000
     1.0000   1.0000   1.0000   1.0000   1.0000   1.0000   1.0000   1.0000
     1.0000   1.0000   1.0000   1.0000   1.0000   1.0000   1.0000   1.0000
     1.0000   1.0000   1.0000   1.0000   1.0000   1.0000   1.0000   1.0000
     1.0000   1.0000   1.0000   1.0000   1.0000   1.0000   1.0000   1.0000
     1.0000   1.0000   1.0000   1.0000   1.0000   1.0000   1.0000   1.0000
     1.0000   1.0000   1.0000   1.0000   1.0000   1.0000   1.0000   1.0000
     1.0000   1.0000   1.0000   1.0000   1.0000   1.0000   1.0000   1.0000
     1.0000   1.0000   1.0000   1.0000   1.0000   1.0000   1.0000   1.0000
     1.0000   1.0000   1.0000   1.0000   1.0000   1.0000   1.0000   1.0000
     1.0000   1.0000   1.0000   1.0000   1.0000   1.0000   1.0000   1.0000
     1.0000   1.0000   1.0000   1.0000   1.0000   1.0000   1.0000   1.0000
     1.0000   1.0000   1.0000   1.0000   1.0000   1.0000   1.0000   1.0000
     1.0000   1.0000   1.0000   1.0000   1.0000   1.0000   1.0000   1.0000
     1.0000   1.0000   1.0000   1.0000   1.0000   1.0000   1.0000   1.0000
     1.0000   1.0000   1.0000   1.0000   1.0000   1.0000   1.0000   1.0000
     1.0000   1.0000   1.0000   1.0000   1.0000   1.0000   1.0000   1.0000
     1.0000   1.0000   1.0000   1.0000   1.0000   1.0000   1.0000   1.0000
     1.0000   1.0000   1.0000   1.0000   1.0000   1.0000   1.0000   1.0000
     1.0000   1.0000   1.0000   1.0000   1.0000   1.0000   1.0000   1.0000
     1.0000   1.0000   1.0000   1.0000   1.0000   1.0000   1.0000   1.0000
     1.0000   1.0000   1.0000   1.0000   1.0000   1.0000   1.0000   1.0000
     1.0000   1.0000   1.0000   1.0000   1.0000   1.0000   1.0000   1.0000
     1.0000   1.0000   1.0000   1.0000   1.0000   1.0000   1.0000   1.0000
     1.0000   1.0000   1.0000   1.0000   1.0000   1.0000   1.0000   1.0000
     1.0000   1.0000   1.0000   1.0000   1.0000   1.0000   1.0000   1.0000
     1.0000   1.0000   1.0000   1.0000   1.0000   1.0000   1.0000   1.0000
     1.0000   1.0000   1.0000   1.0000   1.0000   1.0000   1.0000   1.0000
     1.0000   1.0000   1.0000   1.0000   1.0000   1.0000   1.0000   1.0000
     1.0000   1.0000   1.0000   1.0000   1.0000   1.0000   1.0000   1.0000
     1.0000   1.0000   1.0000   1.0000   1.0000   1.0000   0.9998   0.9998
     0.9998   0.9997   0.9997   0.9996   0.9996   0.9996   0.9996   0.9995
     0.9995   0.9995   0.9994   0.9993   0.9993   0.9991   0.9978   0.9975
     0.9974   0.9973   0.9922   0.9915   0.9900   0.9887   0.9884   0.9879
     0.9865   0.9853   0.9832   0.9813   0.9798   0.9781   0.9723   0.9646
     0.9529   0.9496   0.9430   0.9420   0.9137   0.9077   0.8209   0.6900
     0.4956   0.0963   0.0163   0.0062   0.0056   0.0032   0.0025   0.0015
     0.0012   0.0002   0.0002   0.0001   0.0001   0.0000   0.0000   0.0000
     0.0000   0.0000   0.0000   0.0000   0.0000   0.0000   0.0000   0.0000
     0.0000   0.0000   0.0000   0.0000   0.0000   0.0000   0.0000   0.0000
     0.0000   0.0000   0.0000   0.0000   0.0000   0.0000   0.0000   0.0000
     0.0000   0.0000   0.0000   0.0000   0.0000   0.0000   0.0000   0.0000
     0.0000   0.0000   0.0000   0.0000   0.0000   0.0000   0.0000   0.0000
     0.0000   0.0000   0.0000   0.0000   0.0000   0.0000   0.0000   0.0000
     0.0000   0.0000   0.0000   0.0000   0.0000   0.0000   0.0000   0.0000
     0.0000   0.0000   0.0000   0.0000   0.0000   0.0000   0.0000   0.0000

          k = 0.2500 0.4330-0.2850 (100562 PWs)   bands (ev):

   -71.1988 -71.1924 -71.1921 -71.1809 -71.1805 -71.1795 -71.1793 -71.1791
   -71.1789 -71.1759 -71.1758 -71.1741 -71.1739 -71.1720 -71.1718 -71.1717
   -71.1714 -71.1713 -71.1712 -71.1711 -71.1710 -71.1707 -71.1705 -71.1688
   -71.1676 -71.1674 -71.1499 -71.1497 -71.1494 -71.1492 -71.1348 -71.1347
   -71.1343 -71.1341 -71.1333 -71.1332 -70.0716 -70.0715 -70.0189 -70.0188
   -70.0182 -70.0181 -70.0106 -70.0105 -70.0101 -70.0100 -70.0098 -70.0097
   -70.0060 -70.0057 -70.0056 -70.0012 -70.0003 -69.9988 -69.9987 -69.9984
   -69.9983 -69.9983 -69.9982 -69.9979 -69.9964 -69.9962 -69.9960 -69.9959
   -69.9843 -69.9796 -69.9789 -69.9747 -69.9683 -69.9682 -69.9247 -69.8930
   -37.3421 -37.3266 -37.3260 -37.3131 -37.3128 -37.3117 -37.3116 -37.3111
   -37.3100 -37.3092 -37.3090 -37.3088 -37.3077 -37.3059 -37.3058 -37.3056
   -37.3050 -37.3046 -37.3044 -37.3017 -37.3014 -37.3004 -37.2996 -37.2995
   -37.2968 -37.2963 -37.2828 -37.2820 -37.2787 -37.2782 -37.2667 -37.2658
   -37.2620 -37.2615 -37.2549 -37.2520 -37.2377 -37.2345 -37.2341 -37.2295
   -37.2255 -37.2245 -37.2233 -37.2231 -37.2228 -37.2226 -37.2214 -37.2212
   -37.2182 -37.2179 -37.2168 -37.2164 -37.2158 -37.2156 -37.2151 -37.2148
   -37.2135 -37.2133 -37.2131 -37.2127 -37.2111 -37.2105 -37.2101 -37.2100
   -37.2095 -37.2085 -37.2082 -37.2077 -37.2057 -37.2048 -37.2041 -37.2039
   -37.2029 -37.2025 -37.2025 -37.2013 -37.2013 -37.2009 -37.2006 -37.1992
   -37.1991 -37.1986 -37.1967 -37.1961 -37.1945 -37.1940 -37.1936 -37.1935
   -37.1897 -37.1891 -37.1887 -37.1885 -37.1826 -37.1821 -37.1803 -37.1798
   -37.1798 -37.1793 -37.1783 -37.1778 -37.1777 -37.1769 -37.1692 -37.1684
   -37.1591 -37.1586 -37.1586 -37.1577 -36.3315 -36.3310 -36.3011 -36.3006
   -36.2992 -36.2989 -36.2988 -36.2984 -36.2977 -36.2972 -36.2783 -36.2723
   -36.2392 -36.2389 -36.2197 -36.2194 -36.2169 -36.2164 -36.2112 -36.2107
   -36.2106 -36.2104 -36.2102 -36.2101 -36.2082 -36.2081 -36.2078 -36.2077
   -36.2075 -36.1998 -36.1991 -36.1939 -36.1936 -36.1784 -36.1675 -36.1079
   -36.1076 -36.1076 -36.0958 -36.0926 -36.0735 -36.0712 -36.0707 -36.0703
   -36.0655 -36.0653 -36.0603 -36.0599 -36.0596 -36.0592 -36.0592 -36.0588
   -36.0559 -36.0556 -36.0555 -36.0551 -36.0547 -36.0546 -36.0516 -36.0508
   -36.0468 -36.0376 -36.0369 -36.0356 -36.0352 -36.0336 -36.0323 -36.0320
   -36.0278 -36.0265 -36.0262 -36.0260 -36.0259 -36.0256 -36.0253 -36.0246
   -36.0241 -36.0232 -36.0228 -36.0210 -36.0192 -36.0186 -36.0182 -36.0159
   -36.0155 -36.0149 -36.0137 -36.0134 -36.0125 -36.0114 -36.0112 -36.0111
   -36.0108 -36.0105 -36.0102 -36.0101 -36.0088 -36.0084 -35.9905 -35.9899
   -35.9820 -35.9787 -35.9678 -35.9673 -35.9669 -35.9564 -35.9422 -35.9011
     3.5649   3.8287   3.8796   4.1120   4.3449   4.3908   4.5278   4.6721
     4.9185   4.9780   5.0133   5.0850   5.1011   5.1235   5.1539   5.1834
     5.3298   5.3530   5.4051   5.4224   5.4391   5.4434   5.4823   5.5668
     5.6181   5.6267   5.6505   5.6572   5.6734   5.7105   5.7154   5.7747
     5.9055   6.0267   6.0307   6.1701   8.6201   9.7092   9.8270   9.8630
     9.9235   9.9395   9.9663   9.9901  10.0573  10.0808  10.0933  10.1552
    10.1812  10.1848  10.1923  10.2152  10.2383  10.3103  10.3503  10.4221
    10.4318  10.5019  10.5375  10.5628  10.6057  10.6200  10.7079  10.8263
    10.8515  11.0403  11.1096  11.1325  11.1499  11.2282  11.2338  11.2760
    11.3342  11.4197  11.4523  11.4605  11.4799  11.5267  11.5457  11.6046
    11.6815  11.7078  11.7446  11.7793  11.7990  11.8107  11.8356  11.8545
    11.8628  11.8671  11.8857  11.9277  11.9446  11.9815  12.0323  12.0372
    12.0776  12.0926  12.1149  12.1178  12.1228  12.1314  12.1436  12.1453
    12.1566  12.1883  12.2424  12.2692  12.2835  12.2975  12.3214  12.3413
    12.3460  12.3900  12.4098  12.4245  12.4329  12.4642  12.4652  12.4736
    12.4842  12.5116  12.5189  12.5511  12.5552  12.6244  12.6351  12.6543
    12.6650  12.6707  12.7140  12.7456  12.7793  12.8442  12.8484  12.8558
    12.9118  12.9358  12.9581  12.9671  12.9975  13.0440  13.1140  13.1700
    13.1781  13.5661  13.5971  13.6202  13.6287  13.6342  13.6420  13.6479
    13.6593  13.6664  13.6718  13.6800  13.6935  13.7007  13.7234  13.7364
    13.7379  13.7539  13.7676  13.7702  13.7761  13.8054  13.8186  13.8288
    13.8485  13.8553  13.8660  13.8686  13.8769  13.8856  13.8885  13.8901
    13.8998  13.9056  13.9243  13.9253  13.9336  13.9477  13.9541  13.9550
    13.9593  13.9605  13.9647  14.0105  14.0225  14.0294  14.0415  14.0465
    14.0530  14.0711  14.0726  14.0764  14.0826  14.1004  14.1057  14.1072
    14.1089  14.1129  14.1176  14.1386  14.1388  14.1594  14.1893  14.2050
    14.2079  14.2107  14.2188  14.2257  14.2273  14.2338  14.2376  14.2384
    14.2462  14.2764  14.3095  14.3213  14.3773  14.3858  14.4058  14.4065
    14.4799  14.5797  14.5914  14.5970  14.6673  14.7726  14.7798  14.8089
    14.8380  14.8408  14.8772  14.8800  14.8899  14.8908  14.9009  14.9015
    14.9165  14.9263  14.9431  14.9518  14.9528  14.9669  14.9814  14.9857
    14.9902  14.9956  15.0030  15.0069  15.0109  15.0227  15.0288  15.0297
    15.0336  15.0547  15.0631  15.0655  15.0661  15.0880  15.0930  15.0948
    15.1148  15.1203  15.1211  15.1241  15.1329  15.1402  15.1448  15.1616
    15.1691  15.1734  15.1870  15.2063  15.2103  15.2218  15.2367  15.2419
    15.2474  15.2557  15.2683  15.2724  15.2795  15.2809  15.2913  15.3024
    15.3090  15.3120  15.3308  15.3470  15.3823  15.3837  15.4007  15.4045
    15.4125  15.4153  15.4167  15.4186  15.4324  15.4790  15.4797  15.4874
    15.4930  15.5056  15.5212  15.5296  15.5374  15.5464  15.5588  15.5631
    15.5935  15.6023  15.6025  15.6139  15.6169  15.6295  15.6331  15.6573
    15.6680  15.6875  15.7046  15.7168  15.7307  15.7336  15.7367  15.7447
    15.7522  15.7763  15.7831  15.8005  15.8040  15.8195  15.8404  15.8437
    15.8577  15.8601  15.8912  15.8930  15.8997  15.9041  15.9073  15.9190
    15.9286  15.9315  15.9410  15.9720  15.9772  15.9859  15.9918  16.0251
    16.0269  16.0388  16.0494  16.0561  16.0644  16.0674  16.0750  16.0772
    16.0782  16.1263  16.1381  16.1443  16.1460  16.1531  16.1534  16.1573
    16.1594  16.1890  16.1944  16.2033  16.2068  16.2105  16.2262  16.2521
    16.2581  16.2756  16.2815  16.2921  16.2959  16.3067  16.3156  16.3268
    16.3694  16.3917  16.4307  16.4333  16.4457  16.4472  16.5143  16.5206
    16.5284  16.5485  16.5599  16.5633  16.5649  16.5682  16.5716  16.5732
    16.5783  16.5784  16.5957  16.5994  16.6002  16.6109  16.6654  16.6701
    16.6751  16.6780  16.7366  16.7557  16.7626  16.7720  16.7745  16.7759
    16.7896  16.7954  16.8031  16.8206  16.8219  16.8231  16.8299  16.8736
    16.8890  16.8949  16.9035  16.9083  16.9505  16.9548  17.0253  17.1276
    17.2148  17.4650  17.6223  17.6953  17.6985  17.7321  17.7462  17.7840
    17.7907  17.9037  17.9040  17.9157  17.9509  17.9808  17.9890  18.0082
    18.0466  18.0511  18.0692  18.0891  18.0904  18.3077  18.3860  18.4042
    18.4151  18.5470  18.5647  18.5787  18.6093  18.6177  18.6415  18.6486
    18.6926  18.6983  18.7881  18.8027  18.8252  18.8962  18.9104  18.9111
    19.0123  19.1066  19.1536  19.1704  19.1705  19.2353  19.2534  19.2576
    19.2690  19.3455  19.3581  19.3790  19.3791  19.4163  19.4232  19.4686
    19.4737  19.5587  19.6075  19.6379  19.6983  19.7026  19.7557  19.7843
    19.8219  19.8319  19.8578  20.0354  20.0516  20.2422  20.2483  20.2658
    20.4495  20.7592  20.8373  20.9079  21.0074  21.1032  21.4206  21.4233

     occupation numbers 
     1.0000   1.0000   1.0000   1.0000   1.0000   1.0000   1.0000   1.0000
     1.0000   1.0000   1.0000   1.0000   1.0000   1.0000   1.0000   1.0000
     1.0000   1.0000   1.0000   1.0000   1.0000   1.0000   1.0000   1.0000
     1.0000   1.0000   1.0000   1.0000   1.0000   1.0000   1.0000   1.0000
     1.0000   1.0000   1.0000   1.0000   1.0000   1.0000   1.0000   1.0000
     1.0000   1.0000   1.0000   1.0000   1.0000   1.0000   1.0000   1.0000
     1.0000   1.0000   1.0000   1.0000   1.0000   1.0000   1.0000   1.0000
     1.0000   1.0000   1.0000   1.0000   1.0000   1.0000   1.0000   1.0000
     1.0000   1.0000   1.0000   1.0000   1.0000   1.0000   1.0000   1.0000
     1.0000   1.0000   1.0000   1.0000   1.0000   1.0000   1.0000   1.0000
     1.0000   1.0000   1.0000   1.0000   1.0000   1.0000   1.0000   1.0000
     1.0000   1.0000   1.0000   1.0000   1.0000   1.0000   1.0000   1.0000
     1.0000   1.0000   1.0000   1.0000   1.0000   1.0000   1.0000   1.0000
     1.0000   1.0000   1.0000   1.0000   1.0000   1.0000   1.0000   1.0000
     1.0000   1.0000   1.0000   1.0000   1.0000   1.0000   1.0000   1.0000
     1.0000   1.0000   1.0000   1.0000   1.0000   1.0000   1.0000   1.0000
     1.0000   1.0000   1.0000   1.0000   1.0000   1.0000   1.0000   1.0000
     1.0000   1.0000   1.0000   1.0000   1.0000   1.0000   1.0000   1.0000
     1.0000   1.0000   1.0000   1.0000   1.0000   1.0000   1.0000   1.0000
     1.0000   1.0000   1.0000   1.0000   1.0000   1.0000   1.0000   1.0000
     1.0000   1.0000   1.0000   1.0000   1.0000   1.0000   1.0000   1.0000
     1.0000   1.0000   1.0000   1.0000   1.0000   1.0000   1.0000   1.0000
     1.0000   1.0000   1.0000   1.0000   1.0000   1.0000   1.0000   1.0000
     1.0000   1.0000   1.0000   1.0000   1.0000   1.0000   1.0000   1.0000
     1.0000   1.0000   1.0000   1.0000   1.0000   1.0000   1.0000   1.0000
     1.0000   1.0000   1.0000   1.0000   1.0000   1.0000   1.0000   1.0000
     1.0000   1.0000   1.0000   1.0000   1.0000   1.0000   1.0000   1.0000
     1.0000   1.0000   1.0000   1.0000   1.0000   1.0000   1.0000   1.0000
     1.0000   1.0000   1.0000   1.0000   1.0000   1.0000   1.0000   1.0000
     1.0000   1.0000   1.0000   1.0000   1.0000   1.0000   1.0000   1.0000
     1.0000   1.0000   1.0000   1.0000   1.0000   1.0000   1.0000   1.0000
     1.0000   1.0000   1.0000   1.0000   1.0000   1.0000   1.0000   1.0000
     1.0000   1.0000   1.0000   1.0000   1.0000   1.0000   1.0000   1.0000
     1.0000   1.0000   1.0000   1.0000   1.0000   1.0000   1.0000   1.0000
     1.0000   1.0000   1.0000   1.0000   1.0000   1.0000   1.0000   1.0000
     1.0000   1.0000   1.0000   1.0000   1.0000   1.0000   1.0000   1.0000
     1.0000   1.0000   1.0000   1.0000   1.0000   1.0000   1.0000   1.0000
     1.0000   1.0000   1.0000   1.0000   1.0000   1.0000   1.0000   1.0000
     1.0000   1.0000   1.0000   1.0000   1.0000   1.0000   1.0000   1.0000
     1.0000   1.0000   1.0000   1.0000   1.0000   1.0000   1.0000   1.0000
     1.0000   1.0000   1.0000   1.0000   1.0000   1.0000   1.0000   1.0000
     1.0000   1.0000   1.0000   1.0000   1.0000   1.0000   1.0000   1.0000
     1.0000   1.0000   1.0000   1.0000   1.0000   1.0000   1.0000   1.0000
     1.0000   1.0000   1.0000   1.0000   1.0000   1.0000   1.0000   1.0000
     1.0000   1.0000   1.0000   1.0000   1.0000   1.0000   1.0000   1.0000
     1.0000   1.0000   1.0000   1.0000   1.0000   1.0000   1.0000   1.0000
     1.0000   1.0000   1.0000   1.0000   1.0000   1.0000   1.0000   1.0000
     1.0000   1.0000   1.0000   1.0000   1.0000   1.0000   1.0000   1.0000
     1.0000   1.0000   1.0000   1.0000   1.0000   1.0000   1.0000   1.0000
     1.0000   1.0000   1.0000   1.0000   1.0000   1.0000   1.0000   1.0000
     1.0000   1.0000   1.0000   1.0000   1.0000   1.0000   1.0000   1.0000
     1.0000   1.0000   1.0000   1.0000   1.0000   1.0000   1.0000   1.0000
     1.0000   1.0000   1.0000   1.0000   1.0000   1.0000   1.0000   1.0000
     1.0000   1.0000   1.0000   1.0000   1.0000   1.0000   1.0000   1.0000
     1.0000   1.0000   1.0000   1.0000   1.0000   1.0000   1.0000   1.0000
     1.0000   1.0000   1.0000   1.0000   1.0000   1.0000   1.0000   1.0000
     1.0000   1.0000   1.0000   1.0000   1.0000   1.0000   1.0000   1.0000
     1.0000   1.0000   1.0000   1.0000   1.0000   1.0000   1.0000   1.0000
     1.0000   1.0000   1.0000   1.0000   1.0000   1.0000   1.0000   1.0000
     1.0000   1.0000   1.0000   1.0000   1.0000   1.0000   1.0000   1.0000
     1.0000   1.0000   1.0000   1.0000   1.0000   1.0000   1.0000   1.0000
     1.0000   1.0000   1.0000   1.0000   1.0000   1.0000   1.0000   1.0000
     1.0000   1.0000   1.0000   1.0000   1.0000   1.0000   1.0000   1.0000
     1.0000   1.0000   1.0000   1.0000   1.0000   1.0000   1.0000   1.0000
     1.0000   1.0000   1.0000   1.0000   1.0000   1.0000   1.0000   1.0000
     1.0000   1.0000   1.0000   1.0000   1.0000   1.0000   1.0000   1.0000
     1.0000   1.0000   1.0000   1.0000   1.0000   1.0000   1.0000   1.0000
     1.0000   1.0000   1.0000   1.0000   1.0000   1.0000   1.0000   1.0000
     1.0000   1.0000   1.0000   1.0000   1.0000   1.0000   1.0000   1.0000
     1.0000   1.0000   1.0000   1.0000   1.0000   1.0000   1.0000   1.0000
     1.0000   1.0000   1.0000   1.0000   1.0000   1.0000   1.0000   1.0000
     1.0000   1.0000   1.0000   1.0000   1.0000   1.0000   1.0000   1.0000
     1.0000   1.0000   1.0000   1.0000   1.0000   1.0000   1.0000   1.0000
     1.0000   1.0000   1.0000   1.0000   1.0000   1.0000   1.0000   1.0000
     1.0000   1.0000   1.0000   1.0000   1.0000   1.0000   1.0000   1.0000
     1.0000   1.0000   1.0000   1.0000   1.0000   1.0000   1.0000   1.0000
     1.0000   1.0000   1.0000   1.0000   1.0000   1.0000   1.0000   1.0000
     1.0000   1.0000   1.0000   1.0000   1.0000   1.0000   1.0000   1.0000
     1.0000   1.0000   1.0000   1.0000   1.0000   1.0000   1.0000   1.0000
     1.0000   1.0000   1.0000   1.0000   1.0000   1.0000   1.0000   1.0000
     1.0000   1.0000   1.0000   1.0000   1.0000   1.0000   1.0000   1.0000
     1.0000   1.0000   1.0000   1.0000   1.0000   1.0000   1.0000   1.0000
     1.0000   1.0000   1.0000   1.0000   1.0000   1.0000   1.0000   1.0000
     1.0000   1.0000   1.0000   1.0000   1.0000   1.0000   1.0000   1.0000
     1.0000   1.0000   1.0000   1.0000   1.0000   1.0000   0.9999   0.9998
     0.9998   0.9997   0.9997   0.9996   0.9996   0.9996   0.9996   0.9996
     0.9995   0.9995   0.9993   0.9993   0.9993   0.9991   0.9978   0.9976
     0.9974   0.9973   0.9933   0.9912   0.9903   0.9889   0.9885   0.9883
     0.9860   0.9848   0.9833   0.9791   0.9787   0.9784   0.9765   0.9608
     0.9535   0.9504   0.9457   0.9428   0.9131   0.9095   0.8342   0.6698
     0.4946   0.0945   0.0165   0.0060   0.0057   0.0034   0.0028   0.0015
     0.0013   0.0002   0.0002   0.0001   0.0001   0.0000   0.0000   0.0000
     0.0000   0.0000   0.0000   0.0000   0.0000   0.0000   0.0000   0.0000
     0.0000   0.0000   0.0000   0.0000   0.0000   0.0000   0.0000   0.0000
     0.0000   0.0000   0.0000   0.0000   0.0000   0.0000   0.0000   0.0000
     0.0000   0.0000   0.0000   0.0000   0.0000   0.0000   0.0000   0.0000
     0.0000   0.0000   0.0000   0.0000   0.0000   0.0000   0.0000   0.0000
     0.0000   0.0000   0.0000   0.0000   0.0000   0.0000   0.0000   0.0000
     0.0000   0.0000   0.0000   0.0000   0.0000   0.0000   0.0000   0.0000
     0.0000   0.0000   0.0000   0.0000   0.0000   0.0000   0.0000   0.0000

          k =-0.2500 0.4330 0.5700 (100580 PWs)   bands (ev):

   -71.1988 -71.1924 -71.1921 -71.1809 -71.1805 -71.1795 -71.1793 -71.1791
   -71.1790 -71.1759 -71.1758 -71.1741 -71.1739 -71.1720 -71.1719 -71.1717
   -71.1714 -71.1713 -71.1712 -71.1711 -71.1710 -71.1707 -71.1705 -71.1688
   -71.1676 -71.1674 -71.1499 -71.1497 -71.1494 -71.1492 -71.1348 -71.1347
   -71.1343 -71.1341 -71.1333 -71.1332 -70.0716 -70.0715 -70.0189 -70.0188
   -70.0182 -70.0181 -70.0106 -70.0105 -70.0101 -70.0100 -70.0098 -70.0097
   -70.0060 -70.0057 -70.0056 -70.0012 -70.0003 -69.9988 -69.9987 -69.9984
   -69.9983 -69.9983 -69.9982 -69.9979 -69.9964 -69.9962 -69.9960 -69.9959
   -69.9843 -69.9796 -69.9789 -69.9747 -69.9683 -69.9682 -69.9247 -69.8930
   -37.3421 -37.3266 -37.3260 -37.3137 -37.3133 -37.3120 -37.3116 -37.3111
   -37.3105 -37.3094 -37.3081 -37.3077 -37.3072 -37.3063 -37.3060 -37.3053
   -37.3052 -37.3049 -37.3037 -37.3009 -37.3006 -37.3004 -37.3001 -37.2997
   -37.2974 -37.2969 -37.2826 -37.2819 -37.2789 -37.2784 -37.2665 -37.2657
   -37.2622 -37.2616 -37.2548 -37.2522 -37.2377 -37.2347 -37.2339 -37.2293
   -37.2252 -37.2246 -37.2233 -37.2231 -37.2229 -37.2227 -37.2224 -37.2207
   -37.2187 -37.2171 -37.2165 -37.2160 -37.2158 -37.2152 -37.2149 -37.2146
   -37.2138 -37.2138 -37.2127 -37.2127 -37.2122 -37.2105 -37.2103 -37.2101
   -37.2091 -37.2083 -37.2081 -37.2078 -37.2068 -37.2058 -37.2043 -37.2032
   -37.2025 -37.2025 -37.2020 -37.2014 -37.2010 -37.2004 -37.1999 -37.1994
   -37.1993 -37.1990 -37.1966 -37.1958 -37.1943 -37.1941 -37.1938 -37.1933
   -37.1895 -37.1894 -37.1888 -37.1884 -37.1829 -37.1823 -37.1807 -37.1802
   -37.1799 -37.1795 -37.1781 -37.1775 -37.1774 -37.1766 -37.1693 -37.1684
   -37.1592 -37.1586 -37.1586 -37.1578 -36.3315 -36.3310 -36.3011 -36.3006
   -36.2993 -36.2989 -36.2988 -36.2983 -36.2977 -36.2972 -36.2783 -36.2723
   -36.2392 -36.2389 -36.2196 -36.2194 -36.2169 -36.2164 -36.2111 -36.2107
   -36.2105 -36.2103 -36.2103 -36.2102 -36.2082 -36.2082 -36.2078 -36.2076
   -36.2074 -36.1998 -36.1991 -36.1939 -36.1936 -36.1784 -36.1675 -36.1079
   -36.1076 -36.1076 -36.0959 -36.0925 -36.0735 -36.0712 -36.0708 -36.0702
   -36.0655 -36.0653 -36.0603 -36.0599 -36.0597 -36.0592 -36.0591 -36.0588
   -36.0559 -36.0556 -36.0556 -36.0551 -36.0548 -36.0546 -36.0516 -36.0508
   -36.0468 -36.0375 -36.0370 -36.0355 -36.0352 -36.0334 -36.0328 -36.0320
   -36.0277 -36.0264 -36.0263 -36.0259 -36.0258 -36.0256 -36.0252 -36.0246
   -36.0244 -36.0232 -36.0228 -36.0201 -36.0192 -36.0188 -36.0185 -36.0162
   -36.0157 -36.0150 -36.0137 -36.0134 -36.0118 -36.0112 -36.0111 -36.0109
   -36.0108 -36.0107 -36.0105 -36.0101 -36.0090 -36.0086 -35.9905 -35.9899
   -35.9820 -35.9787 -35.9678 -35.9673 -35.9669 -35.9564 -35.9422 -35.9011
     3.7433   3.8033   4.0050   4.0705   4.0762   4.0803   4.6879   4.7034
     4.7982   4.8361   5.1427   5.1547   5.2139   5.2351   5.2426   5.2437
     5.2896   5.4164   5.4353   5.4428   5.4632   5.5175   5.5448   5.5458
     5.5494   5.5574   5.5593   5.5617   5.5896   5.7099   5.7646   5.7671
     5.8520   6.0770   6.0934   6.2129   8.6065   9.5985   9.7984   9.8290
     9.8337   9.8829   9.9033   9.9890   9.9993  10.0095  10.0381  10.0545
    10.0800  10.1563  10.1880  10.1919  10.2659  10.3244  10.3514  10.3606
    10.3632  10.3670  10.3779  10.5453  10.5469  10.6390  10.6498  10.8426
    10.8488  11.1136  11.1973  11.2847  11.2865  11.2871  11.3772  11.4300
    11.4672  11.5748  11.5806  11.6318  11.6571  11.6891  11.7287  11.7324
    11.7460  11.7584  11.7704  11.7740  11.7819  11.8349  11.8792  11.9445
    11.9592  11.9654  11.9737  11.9786  11.9832  12.0443  12.0625  12.0743
    12.1095  12.1177  12.1362  12.1672  12.1740  12.1843  12.2086  12.2094
    12.2207  12.2257  12.2312  12.2324  12.2347  12.2447  12.2557  12.2727
    12.2766  12.3023  12.3145  12.3213  12.3270  12.3274  12.3311  12.3737
    12.3933  12.3968  12.4727  12.5059  12.5114  12.5996  12.6159  12.6162
    12.6270  12.7335  12.7388  12.7528  12.7570  12.7620  12.7667  12.7726
    12.8856  12.8988  12.9733  12.9855  13.0007  13.0082  13.0104  13.0221
    13.1281  13.5556  13.6269  13.6302  13.6340  13.6379  13.6406  13.6440
    13.6478  13.6549  13.6600  13.6660  13.6789  13.7172  13.7228  13.7299
    13.7563  13.7783  13.7830  13.7840  13.7930  13.7995  13.8015  13.8057
    13.8236  13.8446  13.8577  13.8634  13.8694  13.8735  13.8865  13.8975
    13.9038  13.9055  13.9123  13.9299  13.9472  13.9584  13.9645  13.9658
    13.9744  13.9751  13.9780  13.9795  13.9831  13.9948  14.0042  14.0473
    14.0567  14.0621  14.0635  14.0685  14.0756  14.0799  14.0895  14.0922
    14.1149  14.1194  14.1294  14.1323  14.1467  14.1536  14.1556  14.1683
    14.1714  14.1862  14.2132  14.2229  14.2428  14.2852  14.3040  14.3096
    14.3110  14.3160  14.3204  14.3240  14.3390  14.3448  14.4541  14.4575
    14.4593  14.4616  14.4846  14.4853  14.7816  14.7849  14.8468  14.8531
    14.8862  14.8917  14.8935  14.8950  14.9097  14.9139  14.9303  14.9498
    14.9619  14.9723  14.9741  14.9764  14.9829  14.9862  14.9883  14.9966
    14.9997  15.0052  15.0075  15.0240  15.0269  15.0313  15.0567  15.0617
    15.0663  15.0761  15.0767  15.0814  15.0819  15.0865  15.0877  15.0883
    15.0919  15.0927  15.0961  15.1037  15.1123  15.1183  15.1206  15.1268
    15.1285  15.1315  15.1529  15.1537  15.1766  15.1840  15.2116  15.2201
    15.2318  15.2460  15.2543  15.2623  15.2631  15.2677  15.2735  15.2875
    15.3408  15.3445  15.3526  15.3566  15.3780  15.3854  15.4043  15.4178
    15.4215  15.4260  15.4565  15.4605  15.4678  15.4767  15.4868  15.4970
    15.5123  15.5134  15.5161  15.5190  15.5195  15.5241  15.5620  15.5676
    15.5910  15.6033  15.6103  15.6128  15.6198  15.6203  15.6578  15.6616
    15.6660  15.6749  15.6789  15.6835  15.6949  15.6997  15.7043  15.7077
    15.7691  15.7992  15.7993  15.8110  15.8376  15.8654  15.8699  15.8753
    15.8786  15.8983  15.9028  15.9050  15.9104  15.9135  15.9179  15.9195
    15.9266  15.9441  15.9459  15.9493  15.9660  15.9760  15.9850  15.9876
    15.9932  15.9941  16.0070  16.0117  16.0131  16.0146  16.0192  16.0213
    16.0223  16.1052  16.1228  16.1284  16.1552  16.1602  16.1656  16.1659
    16.1720  16.1742  16.1749  16.1788  16.1839  16.2040  16.2057  16.2483
    16.2599  16.2686  16.2688  16.2990  16.3129  16.3207  16.3210  16.3338
    16.3340  16.3875  16.3879  16.3899  16.3917  16.4428  16.4474  16.5120
    16.5563  16.5640  16.5673  16.5687  16.5737  16.5767  16.5782  16.5807
    16.5822  16.5838  16.6057  16.6092  16.6136  16.6191  16.6622  16.6663
    16.7133  16.7137  16.7208  16.7300  16.7334  16.7362  16.7441  16.7580
    16.8079  16.8131  16.8378  16.8480  16.8627  16.8745  16.8764  16.8811
    16.9839  16.9877  17.0294  17.0687  17.0741  17.0789  17.0837  17.0849
    17.2123  17.2187  17.5436  17.5494  17.5613  17.5643  17.6767  17.6775
    17.7412  17.8457  17.8714  18.0213  18.0613  18.0706  18.0757  18.0802
    18.0992  18.1395  18.1552  18.2537  18.2591  18.2636  18.2985  18.3057
    18.3474  18.3628  18.4975  18.5514  18.6689  18.7386  18.7986  18.8083
    18.8179  18.8205  18.8678  18.8872  18.9185  18.9804  18.9869  19.0005
    19.0093  19.0255  19.0572  19.0635  19.0735  19.0754  19.1179  19.1213
    19.1299  19.1358  19.1438  19.3021  19.3223  19.3235  19.3268  19.4115
    19.4162  19.4613  19.4951  19.5713  19.5740  19.5779  19.5787  19.8405
    19.8458  19.8504  19.8554  19.9570  19.9604  20.1413  20.1679  20.2767
    20.3919  20.6221  20.8934  20.9112  20.9220  20.9657  21.5318  21.5543

     occupation numbers 
     1.0000   1.0000   1.0000   1.0000   1.0000   1.0000   1.0000   1.0000
     1.0000   1.0000   1.0000   1.0000   1.0000   1.0000   1.0000   1.0000
     1.0000   1.0000   1.0000   1.0000   1.0000   1.0000   1.0000   1.0000
     1.0000   1.0000   1.0000   1.0000   1.0000   1.0000   1.0000   1.0000
     1.0000   1.0000   1.0000   1.0000   1.0000   1.0000   1.0000   1.0000
     1.0000   1.0000   1.0000   1.0000   1.0000   1.0000   1.0000   1.0000
     1.0000   1.0000   1.0000   1.0000   1.0000   1.0000   1.0000   1.0000
     1.0000   1.0000   1.0000   1.0000   1.0000   1.0000   1.0000   1.0000
     1.0000   1.0000   1.0000   1.0000   1.0000   1.0000   1.0000   1.0000
     1.0000   1.0000   1.0000   1.0000   1.0000   1.0000   1.0000   1.0000
     1.0000   1.0000   1.0000   1.0000   1.0000   1.0000   1.0000   1.0000
     1.0000   1.0000   1.0000   1.0000   1.0000   1.0000   1.0000   1.0000
     1.0000   1.0000   1.0000   1.0000   1.0000   1.0000   1.0000   1.0000
     1.0000   1.0000   1.0000   1.0000   1.0000   1.0000   1.0000   1.0000
     1.0000   1.0000   1.0000   1.0000   1.0000   1.0000   1.0000   1.0000
     1.0000   1.0000   1.0000   1.0000   1.0000   1.0000   1.0000   1.0000
     1.0000   1.0000   1.0000   1.0000   1.0000   1.0000   1.0000   1.0000
     1.0000   1.0000   1.0000   1.0000   1.0000   1.0000   1.0000   1.0000
     1.0000   1.0000   1.0000   1.0000   1.0000   1.0000   1.0000   1.0000
     1.0000   1.0000   1.0000   1.0000   1.0000   1.0000   1.0000   1.0000
     1.0000   1.0000   1.0000   1.0000   1.0000   1.0000   1.0000   1.0000
     1.0000   1.0000   1.0000   1.0000   1.0000   1.0000   1.0000   1.0000
     1.0000   1.0000   1.0000   1.0000   1.0000   1.0000   1.0000   1.0000
     1.0000   1.0000   1.0000   1.0000   1.0000   1.0000   1.0000   1.0000
     1.0000   1.0000   1.0000   1.0000   1.0000   1.0000   1.0000   1.0000
     1.0000   1.0000   1.0000   1.0000   1.0000   1.0000   1.0000   1.0000
     1.0000   1.0000   1.0000   1.0000   1.0000   1.0000   1.0000   1.0000
     1.0000   1.0000   1.0000   1.0000   1.0000   1.0000   1.0000   1.0000
     1.0000   1.0000   1.0000   1.0000   1.0000   1.0000   1.0000   1.0000
     1.0000   1.0000   1.0000   1.0000   1.0000   1.0000   1.0000   1.0000
     1.0000   1.0000   1.0000   1.0000   1.0000   1.0000   1.0000   1.0000
     1.0000   1.0000   1.0000   1.0000   1.0000   1.0000   1.0000   1.0000
     1.0000   1.0000   1.0000   1.0000   1.0000   1.0000   1.0000   1.0000
     1.0000   1.0000   1.0000   1.0000   1.0000   1.0000   1.0000   1.0000
     1.0000   1.0000   1.0000   1.0000   1.0000   1.0000   1.0000   1.0000
     1.0000   1.0000   1.0000   1.0000   1.0000   1.0000   1.0000   1.0000
     1.0000   1.0000   1.0000   1.0000   1.0000   1.0000   1.0000   1.0000
     1.0000   1.0000   1.0000   1.0000   1.0000   1.0000   1.0000   1.0000
     1.0000   1.0000   1.0000   1.0000   1.0000   1.0000   1.0000   1.0000
     1.0000   1.0000   1.0000   1.0000   1.0000   1.0000   1.0000   1.0000
     1.0000   1.0000   1.0000   1.0000   1.0000   1.0000   1.0000   1.0000
     1.0000   1.0000   1.0000   1.0000   1.0000   1.0000   1.0000   1.0000
     1.0000   1.0000   1.0000   1.0000   1.0000   1.0000   1.0000   1.0000
     1.0000   1.0000   1.0000   1.0000   1.0000   1.0000   1.0000   1.0000
     1.0000   1.0000   1.0000   1.0000   1.0000   1.0000   1.0000   1.0000
     1.0000   1.0000   1.0000   1.0000   1.0000   1.0000   1.0000   1.0000
     1.0000   1.0000   1.0000   1.0000   1.0000   1.0000   1.0000   1.0000
     1.0000   1.0000   1.0000   1.0000   1.0000   1.0000   1.0000   1.0000
     1.0000   1.0000   1.0000   1.0000   1.0000   1.0000   1.0000   1.0000
     1.0000   1.0000   1.0000   1.0000   1.0000   1.0000   1.0000   1.0000
     1.0000   1.0000   1.0000   1.0000   1.0000   1.0000   1.0000   1.0000
     1.0000   1.0000   1.0000   1.0000   1.0000   1.0000   1.0000   1.0000
     1.0000   1.0000   1.0000   1.0000   1.0000   1.0000   1.0000   1.0000
     1.0000   1.0000   1.0000   1.0000   1.0000   1.0000   1.0000   1.0000
     1.0000   1.0000   1.0000   1.0000   1.0000   1.0000   1.0000   1.0000
     1.0000   1.0000   1.0000   1.0000   1.0000   1.0000   1.0000   1.0000
     1.0000   1.0000   1.0000   1.0000   1.0000   1.0000   1.0000   1.0000
     1.0000   1.0000   1.0000   1.0000   1.0000   1.0000   1.0000   1.0000
     1.0000   1.0000   1.0000   1.0000   1.0000   1.0000   1.0000   1.0000
     1.0000   1.0000   1.0000   1.0000   1.0000   1.0000   1.0000   1.0000
     1.0000   1.0000   1.0000   1.0000   1.0000   1.0000   1.0000   1.0000
     1.0000   1.0000   1.0000   1.0000   1.0000   1.0000   1.0000   1.0000
     1.0000   1.0000   1.0000   1.0000   1.0000   1.0000   1.0000   1.0000
     1.0000   1.0000   1.0000   1.0000   1.0000   1.0000   1.0000   1.0000
     1.0000   1.0000   1.0000   1.0000   1.0000   1.0000   1.0000   1.0000
     1.0000   1.0000   1.0000   1.0000   1.0000   1.0000   1.0000   1.0000
     1.0000   1.0000   1.0000   1.0000   1.0000   1.0000   1.0000   1.0000
     1.0000   1.0000   1.0000   1.0000   1.0000   1.0000   1.0000   1.0000
     1.0000   1.0000   1.0000   1.0000   1.0000   1.0000   1.0000   1.0000
     1.0000   1.0000   1.0000   1.0000   1.0000   1.0000   1.0000   1.0000
     1.0000   1.0000   1.0000   1.0000   1.0000   1.0000   1.0000   1.0000
     1.0000   1.0000   1.0000   1.0000   1.0000   1.0000   1.0000   1.0000
     1.0000   1.0000   1.0000   1.0000   1.0000   1.0000   1.0000   1.0000
     1.0000   1.0000   1.0000   1.0000   1.0000   1.0000   1.0000   1.0000
     1.0000   1.0000   1.0000   1.0000   1.0000   1.0000   1.0000   1.0000
     1.0000   1.0000   1.0000   1.0000   1.0000   1.0000   1.0000   1.0000
     1.0000   1.0000   1.0000   1.0000   1.0000   1.0000   1.0000   1.0000
     1.0000   1.0000   1.0000   1.0000   1.0000   1.0000   1.0000   1.0000
     1.0000   1.0000   1.0000   1.0000   1.0000   1.0000   1.0000   1.0000
     1.0000   1.0000   1.0000   1.0000   1.0000   1.0000   1.0000   1.0000
     1.0000   1.0000   1.0000   1.0000   1.0000   1.0000   1.0000   1.0000
     1.0000   1.0000   1.0000   1.0000   1.0000   1.0000   1.0000   1.0000
     1.0000   1.0000   1.0000   1.0000   1.0000   1.0000   1.0000   1.0000
     1.0000   1.0000   1.0000   1.0000   1.0000   1.0000   1.0000   1.0000
     1.0000   1.0000   1.0000   1.0000   1.0000   1.0000   1.0000   0.9999
     0.9997   0.9996   0.9996   0.9996   0.9995   0.9995   0.9995   0.9995
     0.9995   0.9995   0.9992   0.9991   0.9991   0.9990   0.9979   0.9977
     0.9952   0.9952   0.9947   0.9939   0.9936   0.9933   0.9925   0.9909
     0.9822   0.9810   0.9741   0.9708   0.9653   0.9603   0.9595   0.9574
     0.8823   0.8783   0.8289   0.7720   0.7635   0.7558   0.7479   0.7458
     0.4997   0.4864   0.0425   0.0399   0.0348   0.0336   0.0079   0.0078
     0.0030   0.0005   0.0003   0.0000   0.0000   0.0000   0.0000   0.0000
     0.0000   0.0000   0.0000   0.0000   0.0000   0.0000   0.0000   0.0000
     0.0000   0.0000   0.0000   0.0000   0.0000   0.0000   0.0000   0.0000
     0.0000   0.0000   0.0000   0.0000   0.0000   0.0000   0.0000   0.0000
     0.0000   0.0000   0.0000   0.0000   0.0000   0.0000   0.0000   0.0000
     0.0000   0.0000   0.0000   0.0000   0.0000   0.0000   0.0000   0.0000
     0.0000   0.0000   0.0000   0.0000   0.0000   0.0000   0.0000   0.0000
     0.0000   0.0000   0.0000   0.0000   0.0000   0.0000   0.0000   0.0000
     0.0000   0.0000   0.0000   0.0000   0.0000   0.0000   0.0000   0.0000

 ------ SPIN DOWN ----------


          k = 0.0000 0.0000 0.0000 (100519 PWs)   bands (ev):

   -69.1493 -69.1395 -69.0695 -69.0554 -69.0343 -69.0339 -69.0324 -69.0318
   -69.0190 -69.0185 -69.0185 -69.0181 -69.0163 -69.0160 -69.0131 -69.0127
   -69.0127 -69.0118 -69.0091 -69.0071 -69.0070 -69.0068 -69.0067 -69.0067
   -69.0065 -69.0064 -69.0062 -69.0047 -69.0044 -69.0043 -69.0041 -69.0014
   -68.9951 -68.9951 -68.9774 -68.9771 -68.6456 -68.6421 -68.6413 -68.6397
   -68.6393 -68.6365 -68.6365 -68.6360 -68.6360 -68.6345 -68.6344 -68.6341
   -68.6341 -68.6333 -68.6331 -68.6327 -68.6326 -68.6325 -68.6324 -68.6320
   -68.6320 -68.6319 -68.6316 -68.6314 -68.6314 -68.6311 -68.6311 -68.6308
   -68.6307 -68.6302 -68.6292 -68.6292 -68.6287 -68.6287 -68.6236 -68.6236
   -35.4825 -35.4063 -35.3481 -35.3047 -35.3035 -35.3033 -35.3028 -35.3002
   -35.2988 -35.2962 -35.2958 -35.2954 -35.2949 -35.2885 -35.2885 -35.2549
   -35.2399 -35.2375 -35.2370 -35.2365 -35.2364 -35.2362 -35.2351 -35.2313
   -35.2309 -35.2284 -35.2280 -35.2269 -35.2265 -35.2263 -35.2256 -35.2245
   -35.2242 -35.2240 -35.2187 -35.2180 -35.2171 -35.2171 -35.2169 -35.1878
   -35.1836 -35.1820 -35.1803 -35.1789 -35.1774 -35.1747 -35.1740 -35.1725
   -35.1722 -35.1719 -35.1714 -35.1710 -35.1705 -35.1702 -35.1686 -35.1682
   -35.1674 -35.1643 -35.1633 -35.1631 -35.1610 -35.1592 -35.1592 -35.1588
   -35.1580 -35.1570 -35.1553 -35.1552 -35.1543 -35.1542 -35.1372 -35.1358
   -35.1074 -35.1013 -35.0870 -35.0693 -35.0506 -35.0452 -35.0445 -35.0413
   -35.0383 -35.0376 -35.0313 -35.0286 -35.0285 -35.0281 -35.0248 -35.0232
   -35.0223 -35.0206 -35.0194 -35.0193 -35.0184 -35.0161 -35.0143 -35.0133
   -35.0131 -35.0121 -35.0117 -35.0114 -35.0104 -35.0083 -35.0044 -35.0014
   -34.9971 -34.9962 -34.9934 -34.9857 -34.8399 -34.8395 -34.8333 -34.8307
   -34.8300 -34.8299 -34.8293 -34.8270 -34.8263 -34.8262 -34.8259 -34.8252
   -34.8243 -34.8234 -34.8230 -34.8225 -34.8224 -34.8220 -34.8219 -34.8217
   -34.8213 -34.8206 -34.8202 -34.8199 -34.8192 -34.8190 -34.8185 -34.8181
   -34.8179 -34.8170 -34.8155 -34.8142 -34.8137 -34.8134 -34.8110 -34.8044
   -34.7679 -34.7675 -34.7671 -34.7651 -34.7637 -34.7637 -34.7632 -34.7611
   -34.7609 -34.7605 -34.7603 -34.7597 -34.7596 -34.7594 -34.7590 -34.7583
   -34.7567 -34.7562 -34.7559 -34.7554 -34.7552 -34.7551 -34.7545 -34.7543
   -34.7543 -34.7537 -34.7531 -34.7526 -34.7516 -34.7514 -34.7506 -34.7502
   -34.7495 -34.7494 -34.7398 -34.7391 -34.7092 -34.7015 -34.6992 -34.6989
   -34.6959 -34.6956 -34.6934 -34.6929 -34.6907 -34.6906 -34.6900 -34.6889
   -34.6882 -34.6876 -34.6848 -34.6830 -34.6829 -34.6824 -34.6815 -34.6808
   -34.6797 -34.6794 -34.6789 -34.6754 -34.6749 -34.6748 -34.6727 -34.6727
   -34.6725 -34.6719 -34.6716 -34.6712 -34.6709 -34.6703 -34.6633 -34.6630
     3.2641   4.2045   4.3229   4.3262   4.3337   4.3604   4.3977   4.4192
     4.4272   5.0478   5.1139   5.1334   5.1342   5.1386   5.1452   5.1714
     5.2175   5.2199   5.2211   5.2253   5.2282   5.3723   5.3727   5.3774
     5.4528   5.7174   5.7225   5.8065   5.8122   5.8143   5.8168   5.8232
     5.8239   5.8442   6.1976   6.2014   8.6970   9.6526   9.6547   9.8461
    10.2771  10.2816  10.2833  10.2848  10.2868  10.4296  10.6337  10.6375
    10.6383  10.6387  10.6391  10.6426  10.6438  10.6694  10.7078  10.7085
    10.8140  10.8146  10.8146  10.8195  10.8200  10.9451  10.9966  11.0019
    11.0072  11.0125  11.0675  11.1159  11.1201  11.2586  11.2639  11.4067
    11.4875  11.4989  11.4998  11.5035  11.5050  11.5063  11.5091  11.5097
    11.5107  11.7175  11.8001  11.8022  11.8029  12.1022  12.1957  12.2069
    12.2581  12.2679  12.2716  12.2763  12.2805  12.2840  12.2984  12.3001
    12.3030  12.3057  12.3148  12.4666  12.4837  12.4895  12.5754  12.6094
    12.6536  12.6599  12.6622  12.6641  12.6670  12.7552  12.7641  12.7673
    12.8523  12.8873  12.9059  12.9409  12.9604  12.9606  12.9737  12.9773
    12.9798  12.9824  12.9856  12.9867  12.9890  13.1980  13.2927  13.2952
    13.3026  13.3147  13.3158  13.3175  13.3366  13.3483  13.4617  13.4730
    13.4762  13.4821  13.4882  13.4977  13.5940  13.8167  13.8196  13.8250
    13.9018  14.5091  14.5147  14.5163  14.5211  14.5268  14.5418  14.5599
    14.6558  14.6618  14.6769  14.7032  14.7142  14.7222  14.7479  14.7542
    14.7640  14.7648  14.7660  14.7661  14.7892  14.8144  14.8599  14.8732
    14.8742  14.8808  14.8841  14.8876  14.9203  14.9205  14.9208  14.9219
    14.9271  14.9405  14.9552  14.9598  14.9931  15.0103  15.0568  15.0680
    15.0719  15.0790  15.1054  15.1157  15.1158  15.1178  15.1190  15.1312
    15.1777  15.1818  15.1821  15.1846  15.1904  15.1921  15.1955  15.1964
    15.1980  15.1984  15.2015  15.2470  15.2558  15.4041  15.4143  15.4561
    15.4656  15.4660  15.4666  15.4666  15.4728  15.4886  15.5311  15.5388
    15.5390  15.5485  15.5599  15.5735  15.5920  15.6011  15.6553  15.6677
    15.6736  15.6743  15.7861  15.7968  15.8240  15.8321  15.8342  15.9538
    15.9577  15.9882  15.9893  15.9971  15.9998  16.0027  16.0075  16.0109
    16.0118  16.0128  16.0138  16.1178  16.1346  16.1383  16.1394  16.1514
    16.1636  16.1687  16.1692  16.1742  16.1775  16.1795  16.1806  16.2142
    16.2157  16.2201  16.2498  16.2525  16.2690  16.2756  16.2801  16.2803
    16.4804  16.4837  16.4890  16.5258  16.5350  16.5372  16.5423  16.5480
    16.5530  16.6395  16.6615  16.6954  16.7034  16.7192  16.7195  16.7206
    16.7273  16.7295  16.7327  16.7347  16.7348  16.7406  16.7500  16.7993
    16.8159  16.8159  16.8209  16.8228  16.8534  16.8604  16.8727  16.8861
    16.9371  16.9663  16.9911  17.0001  17.0179  17.0250  17.0398  17.0408
    17.0434  17.0468  17.0593  17.0601  17.0601  17.0618  17.0652  17.0658
    17.0715  17.0716  17.0783  17.0861  17.0899  17.0964  17.0981  17.1002
    17.1026  17.1221  17.1581  17.1632  17.1767  17.1798  17.2793  17.2957
    17.2959  17.2987  17.2991  17.3118  17.3131  17.3207  17.3229  17.3525
    17.4284  17.4422  17.4492  17.4521  17.4546  17.4599  17.4644  17.4798
    17.4873  17.4963  17.4982  17.4985  17.5074  17.5118  17.5284  17.5401
    17.5469  17.5729  17.5752  17.6909  17.7012  17.7083  17.7539  17.8107
    17.8122  17.8330  17.8343  17.8393  17.8393  17.8400  17.9379  17.9407
    17.9427  17.9517  17.9645  17.9729  17.9790  17.9940  18.0049  18.0050
    18.0166  18.0167  18.0188  18.0201  18.0229  18.0242  18.0297  18.0391
    18.0397  18.0467  18.0592  18.0693  18.0732  18.0780  18.0783  18.0820
    18.0848  18.0863  18.0867  18.0950  18.0966  18.0999  18.1061  18.1210
    18.1217  18.1229  18.1243  18.1253  18.1266  18.1330  18.1356  18.1367
    18.1443  18.1462  18.2339  18.2390  18.2448  18.2909  18.3010  18.3027
    18.3064  18.3078  18.3098  18.3115  18.3136  18.3145  18.3158  18.3159
    18.3189  18.3785  18.3878  18.3915  18.4142  18.4202  18.5732  18.5793
    18.5799  18.5817  18.6440  18.6798  18.8145  18.8227  18.8819  18.9093
    18.9145  19.3281  19.3685  19.3744  19.3819  19.3825  19.3888  19.4131
    19.4249  19.4318  19.4390  19.4460  19.4483  19.4656  19.4741  19.4976
    19.5588  19.5608  19.5659  19.5671  19.5881  19.5953  19.5957  19.6042
    19.6066  19.6098  19.7388  19.7444  19.7450  19.7468  19.7541  19.7613
    19.8243  19.8327  19.8374  19.8789  19.8853  19.9015  19.9361  19.9600
    19.9721  19.9851  19.9860  19.9881  19.9944  20.0031  20.0096  20.3468
    20.3926  20.4147  20.4191  20.6529  20.6752  20.6861  20.6943  20.6993
    20.7009  20.9589  21.0877  21.1015  21.1097  21.1317  21.3451  21.3582
    21.3626  21.4792  21.6801  21.6854  21.7130  21.7198  21.7313  21.7371

     occupation numbers 
     1.0000   1.0000   1.0000   1.0000   1.0000   1.0000   1.0000   1.0000
     1.0000   1.0000   1.0000   1.0000   1.0000   1.0000   1.0000   1.0000
     1.0000   1.0000   1.0000   1.0000   1.0000   1.0000   1.0000   1.0000
     1.0000   1.0000   1.0000   1.0000   1.0000   1.0000   1.0000   1.0000
     1.0000   1.0000   1.0000   1.0000   1.0000   1.0000   1.0000   1.0000
     1.0000   1.0000   1.0000   1.0000   1.0000   1.0000   1.0000   1.0000
     1.0000   1.0000   1.0000   1.0000   1.0000   1.0000   1.0000   1.0000
     1.0000   1.0000   1.0000   1.0000   1.0000   1.0000   1.0000   1.0000
     1.0000   1.0000   1.0000   1.0000   1.0000   1.0000   1.0000   1.0000
     1.0000   1.0000   1.0000   1.0000   1.0000   1.0000   1.0000   1.0000
     1.0000   1.0000   1.0000   1.0000   1.0000   1.0000   1.0000   1.0000
     1.0000   1.0000   1.0000   1.0000   1.0000   1.0000   1.0000   1.0000
     1.0000   1.0000   1.0000   1.0000   1.0000   1.0000   1.0000   1.0000
     1.0000   1.0000   1.0000   1.0000   1.0000   1.0000   1.0000   1.0000
     1.0000   1.0000   1.0000   1.0000   1.0000   1.0000   1.0000   1.0000
     1.0000   1.0000   1.0000   1.0000   1.0000   1.0000   1.0000   1.0000
     1.0000   1.0000   1.0000   1.0000   1.0000   1.0000   1.0000   1.0000
     1.0000   1.0000   1.0000   1.0000   1.0000   1.0000   1.0000   1.0000
     1.0000   1.0000   1.0000   1.0000   1.0000   1.0000   1.0000   1.0000
     1.0000   1.0000   1.0000   1.0000   1.0000   1.0000   1.0000   1.0000
     1.0000   1.0000   1.0000   1.0000   1.0000   1.0000   1.0000   1.0000
     1.0000   1.0000   1.0000   1.0000   1.0000   1.0000   1.0000   1.0000
     1.0000   1.0000   1.0000   1.0000   1.0000   1.0000   1.0000   1.0000
     1.0000   1.0000   1.0000   1.0000   1.0000   1.0000   1.0000   1.0000
     1.0000   1.0000   1.0000   1.0000   1.0000   1.0000   1.0000   1.0000
     1.0000   1.0000   1.0000   1.0000   1.0000   1.0000   1.0000   1.0000
     1.0000   1.0000   1.0000   1.0000   1.0000   1.0000   1.0000   1.0000
     1.0000   1.0000   1.0000   1.0000   1.0000   1.0000   1.0000   1.0000
     1.0000   1.0000   1.0000   1.0000   1.0000   1.0000   1.0000   1.0000
     1.0000   1.0000   1.0000   1.0000   1.0000   1.0000   1.0000   1.0000
     1.0000   1.0000   1.0000   1.0000   1.0000   1.0000   1.0000   1.0000
     1.0000   1.0000   1.0000   1.0000   1.0000   1.0000   1.0000   1.0000
     1.0000   1.0000   1.0000   1.0000   1.0000   1.0000   1.0000   1.0000
     1.0000   1.0000   1.0000   1.0000   1.0000   1.0000   1.0000   1.0000
     1.0000   1.0000   1.0000   1.0000   1.0000   1.0000   1.0000   1.0000
     1.0000   1.0000   1.0000   1.0000   1.0000   1.0000   1.0000   1.0000
     1.0000   1.0000   1.0000   1.0000   1.0000   1.0000   1.0000   1.0000
     1.0000   1.0000   1.0000   1.0000   1.0000   1.0000   1.0000   1.0000
     1.0000   1.0000   1.0000   1.0000   1.0000   1.0000   1.0000   1.0000
     1.0000   1.0000   1.0000   1.0000   1.0000   1.0000   1.0000   1.0000
     1.0000   1.0000   1.0000   1.0000   1.0000   1.0000   1.0000   1.0000
     1.0000   1.0000   1.0000   1.0000   1.0000   1.0000   1.0000   1.0000
     1.0000   1.0000   1.0000   1.0000   1.0000   1.0000   1.0000   1.0000
     1.0000   1.0000   1.0000   1.0000   1.0000   1.0000   1.0000   1.0000
     1.0000   1.0000   1.0000   1.0000   1.0000   1.0000   1.0000   1.0000
     1.0000   1.0000   1.0000   1.0000   1.0000   1.0000   1.0000   1.0000
     1.0000   1.0000   1.0000   1.0000   1.0000   1.0000   1.0000   1.0000
     1.0000   1.0000   1.0000   1.0000   1.0000   1.0000   1.0000   1.0000
     1.0000   1.0000   1.0000   1.0000   1.0000   1.0000   1.0000   1.0000
     1.0000   1.0000   1.0000   1.0000   1.0000   1.0000   1.0000   1.0000
     1.0000   1.0000   1.0000   1.0000   1.0000   1.0000   1.0000   1.0000
     1.0000   1.0000   1.0000   1.0000   1.0000   1.0000   1.0000   1.0000
     1.0000   1.0000   1.0000   1.0000   1.0000   1.0000   1.0000   1.0000
     1.0000   1.0000   1.0000   1.0000   1.0000   1.0000   1.0000   1.0000
     1.0000   1.0000   1.0000   1.0000   1.0000   1.0000   1.0000   1.0000
     1.0000   1.0000   1.0000   1.0000   1.0000   1.0000   1.0000   1.0000
     1.0000   1.0000   1.0000   1.0000   1.0000   1.0000   1.0000   1.0000
     1.0000   1.0000   1.0000   1.0000   1.0000   1.0000   1.0000   1.0000
     1.0000   1.0000   1.0000   1.0000   1.0000   1.0000   1.0000   1.0000
     1.0000   1.0000   1.0000   1.0000   1.0000   1.0000   1.0000   1.0000
     1.0000   1.0000   1.0000   1.0000   1.0000   1.0000   1.0000   1.0000
     1.0000   1.0000   1.0000   1.0000   1.0000   1.0000   1.0000   1.0000
     1.0000   1.0000   1.0000   1.0000   1.0000   1.0000   1.0000   1.0000
     1.0000   1.0000   1.0000   1.0000   1.0000   1.0000   1.0000   1.0000
     1.0000   1.0000   1.0000   1.0000   1.0000   1.0000   1.0000   1.0000
     1.0000   1.0000   1.0000   1.0000   1.0000   1.0000   1.0000   1.0000
     1.0000   1.0000   1.0000   1.0000   1.0000   1.0000   1.0000   1.0000
     1.0000   1.0000   1.0000   1.0000   1.0000   1.0000   1.0000   1.0000
     1.0000   1.0000   1.0000   1.0000   1.0000   1.0000   1.0000   1.0000
     0.9999   0.9999   0.9999   0.9998   0.9998   0.9998   0.9998   0.9997
     0.9997   0.9985   0.9979   0.9964   0.9959   0.9948   0.9948   0.9947
     0.9941   0.9939   0.9936   0.9935   0.9934   0.9929   0.9918   0.9840
     0.9803   0.9803   0.9790   0.9785   0.9689   0.9662   0.9612   0.9549
     0.9236   0.8993   0.8747   0.8648   0.8436   0.8346   0.8148   0.8135
     0.8099   0.8050   0.7865   0.7854   0.7853   0.7828   0.7775   0.7766
     0.7677   0.7675   0.7567   0.7438   0.7374   0.7263   0.7234   0.7198
     0.7154   0.6801   0.6107   0.6004   0.5732   0.5669   0.3636   0.3320
     0.3317   0.3264   0.3256   0.3023   0.3000   0.2863   0.2825   0.2330
     0.1305   0.1159   0.1090   0.1063   0.1039   0.0990   0.0950   0.0821
     0.0764   0.0699   0.0686   0.0683   0.0624   0.0597   0.0501   0.0442
     0.0410   0.0304   0.0296   0.0064   0.0055   0.0050   0.0024   0.0009
     0.0009   0.0006   0.0006   0.0006   0.0006   0.0006   0.0001   0.0001
     0.0001   0.0001   0.0000   0.0000   0.0000   0.0000   0.0000   0.0000
     0.0000   0.0000   0.0000   0.0000   0.0000   0.0000   0.0000   0.0000
     0.0000   0.0000   0.0000   0.0000   0.0000   0.0000   0.0000   0.0000
     0.0000   0.0000   0.0000   0.0000   0.0000   0.0000   0.0000   0.0000
     0.0000   0.0000   0.0000   0.0000   0.0000   0.0000   0.0000   0.0000
     0.0000   0.0000   0.0000   0.0000   0.0000   0.0000   0.0000   0.0000
     0.0000   0.0000   0.0000   0.0000   0.0000   0.0000   0.0000   0.0000
     0.0000   0.0000   0.0000   0.0000   0.0000   0.0000   0.0000   0.0000
     0.0000   0.0000   0.0000   0.0000   0.0000   0.0000   0.0000   0.0000
     0.0000   0.0000   0.0000   0.0000   0.0000   0.0000   0.0000   0.0000
     0.0000   0.0000   0.0000   0.0000   0.0000   0.0000   0.0000   0.0000
     0.0000   0.0000   0.0000   0.0000   0.0000   0.0000   0.0000   0.0000
     0.0000   0.0000   0.0000   0.0000   0.0000   0.0000   0.0000   0.0000
     0.0000   0.0000   0.0000   0.0000   0.0000   0.0000   0.0000   0.0000
     0.0000   0.0000   0.0000   0.0000   0.0000   0.0000   0.0000   0.0000
     0.0000   0.0000   0.0000   0.0000   0.0000   0.0000   0.0000   0.0000
     0.0000   0.0000   0.0000   0.0000   0.0000   0.0000   0.0000   0.0000
     0.0000   0.0000   0.0000   0.0000   0.0000   0.0000   0.0000   0.0000

          k = 0.0000 0.0000 0.2850 (100651 PWs)   bands (ev):

   -69.1493 -69.1395 -69.0695 -69.0554 -69.0343 -69.0339 -69.0324 -69.0318
   -69.0190 -69.0185 -69.0185 -69.0181 -69.0163 -69.0160 -69.0131 -69.0127
   -69.0127 -69.0118 -69.0091 -69.0071 -69.0070 -69.0068 -69.0067 -69.0067
   -69.0065 -69.0064 -69.0062 -69.0047 -69.0044 -69.0043 -69.0041 -69.0014
   -68.9951 -68.9951 -68.9774 -68.9771 -68.6456 -68.6421 -68.6413 -68.6397
   -68.6393 -68.6365 -68.6365 -68.6360 -68.6360 -68.6345 -68.6344 -68.6341
   -68.6341 -68.6333 -68.6331 -68.6327 -68.6326 -68.6325 -68.6324 -68.6320
   -68.6319 -68.6319 -68.6316 -68.6314 -68.6314 -68.6311 -68.6311 -68.6308
   -68.6307 -68.6302 -68.6292 -68.6292 -68.6287 -68.6287 -68.6236 -68.6236
   -35.4825 -35.4063 -35.3481 -35.3046 -35.3036 -35.3033 -35.3028 -35.3002
   -35.2988 -35.2963 -35.2958 -35.2953 -35.2949 -35.2886 -35.2885 -35.2549
   -35.2400 -35.2381 -35.2375 -35.2365 -35.2359 -35.2355 -35.2349 -35.2314
   -35.2304 -35.2284 -35.2282 -35.2275 -35.2263 -35.2261 -35.2259 -35.2248
   -35.2244 -35.2235 -35.2192 -35.2176 -35.2174 -35.2169 -35.2168 -35.1878
   -35.1839 -35.1817 -35.1810 -35.1781 -35.1779 -35.1739 -35.1736 -35.1724
   -35.1721 -35.1718 -35.1715 -35.1710 -35.1705 -35.1703 -35.1691 -35.1688
   -35.1670 -35.1646 -35.1633 -35.1632 -35.1610 -35.1594 -35.1590 -35.1586
   -35.1579 -35.1567 -35.1564 -35.1552 -35.1545 -35.1536 -35.1373 -35.1358
   -35.1074 -35.1014 -35.0870 -35.0696 -35.0505 -35.0462 -35.0450 -35.0425
   -35.0370 -35.0367 -35.0313 -35.0286 -35.0285 -35.0275 -35.0263 -35.0234
   -35.0226 -35.0209 -35.0190 -35.0181 -35.0176 -35.0147 -35.0143 -35.0132
   -35.0129 -35.0123 -35.0114 -35.0110 -35.0097 -35.0080 -35.0051 -35.0022
   -34.9981 -34.9976 -34.9932 -34.9861 -34.8414 -34.8383 -34.8335 -34.8333
   -34.8308 -34.8302 -34.8272 -34.8270 -34.8262 -34.8260 -34.8259 -34.8248
   -34.8236 -34.8231 -34.8228 -34.8227 -34.8223 -34.8221 -34.8217 -34.8213
   -34.8209 -34.8204 -34.8203 -34.8197 -34.8194 -34.8186 -34.8183 -34.8180
   -34.8176 -34.8165 -34.8151 -34.8146 -34.8144 -34.8141 -34.8117 -34.8064
   -34.7666 -34.7665 -34.7658 -34.7646 -34.7633 -34.7629 -34.7628 -34.7618
   -34.7612 -34.7601 -34.7600 -34.7598 -34.7588 -34.7584 -34.7580 -34.7577
   -34.7571 -34.7568 -34.7566 -34.7563 -34.7562 -34.7553 -34.7552 -34.7551
   -34.7550 -34.7546 -34.7545 -34.7543 -34.7543 -34.7527 -34.7509 -34.7491
   -34.7470 -34.7467 -34.7405 -34.7384 -34.7092 -34.7014 -34.6992 -34.6990
   -34.6959 -34.6956 -34.6936 -34.6927 -34.6907 -34.6907 -34.6899 -34.6890
   -34.6882 -34.6876 -34.6848 -34.6830 -34.6829 -34.6823 -34.6816 -34.6807
   -34.6799 -34.6794 -34.6788 -34.6754 -34.6749 -34.6749 -34.6727 -34.6727
   -34.6725 -34.6720 -34.6717 -34.6711 -34.6709 -34.6702 -34.6634 -34.6629
     3.3368   3.8917   4.3040   4.3822   4.3860   4.4391   4.4787   4.4868
     4.7537   4.8128   4.8187   4.8258   4.8883   4.9128   4.9209   5.3919
     5.4099   5.4126   5.4182   5.4342   5.4358   5.4519   5.4836   5.4847
     5.4922   5.6396   5.6610   5.6651   5.6709   5.6755   5.8728   5.8979
     5.9010   5.9119   6.0722   6.2998   8.6917   9.7238   9.7261   9.8384
    10.0064  10.0071  10.0959  10.1708  10.1873  10.1880  10.1906  10.2137
    10.2183  10.4160  10.7081  10.7479  10.8962  10.9006  10.9010  10.9104
    10.9131  10.9212  10.9808  11.0325  11.0330  11.0340  11.0449  11.0490
    11.0555  11.0712  11.0819  11.1188  11.1233  11.1650  11.1826  11.3192
    11.3910  11.3920  11.4651  11.4927  11.4990  11.7469  11.7560  11.7694
    11.8617  11.8707  11.8737  11.9523  12.0437  12.1092  12.2009  12.2964
    12.3076  12.3241  12.3406  12.3531  12.3787  12.3927  12.4016  12.4068
    12.4128  12.4137  12.4570  12.4618  12.4727  12.4842  12.5024  12.5299
    12.5299  12.5384  12.6796  12.7192  12.7222  12.7242  12.7349  12.7364
    12.7859  12.8035  12.8699  12.8890  12.8967  12.9020  12.9046  12.9187
    12.9596  12.9606  12.9769  13.1097  13.1275  13.1408  13.1983  13.2094
    13.2163  13.2489  13.2648  13.2703  13.2788  13.2789  13.2849  13.3193
    13.3258  13.3488  13.4490  13.4648  13.4703  13.6650  13.7455  13.7535
    13.7601  14.4693  14.4719  14.5628  14.5683  14.5755  14.6546  14.6641
    14.6766  14.6804  14.6986  14.7039  14.7080  14.7276  14.7320  14.7362
    14.7492  14.7653  14.8012  14.8025  14.8106  14.8165  14.8258  14.8594
    14.8768  14.8843  14.8877  14.9180  14.9254  14.9382  14.9394  14.9556
    14.9767  14.9799  14.9826  14.9882  14.9941  15.0119  15.0252  15.0258
    15.0304  15.0313  15.0325  15.0551  15.0572  15.0771  15.0849  15.1099
    15.1503  15.1543  15.1562  15.1601  15.1624  15.1990  15.2030  15.2161
    15.2190  15.2676  15.2688  15.2985  15.3044  15.3074  15.3142  15.3650
    15.3724  15.3742  15.3793  15.3948  15.3997  15.4894  15.5344  15.5356
    15.5504  15.5559  15.6165  15.6173  15.6222  15.6722  15.6813  15.6831
    15.7584  15.7798  15.7888  15.8089  15.8199  15.8252  15.9622  15.9700
    15.9920  15.9975  15.9992  16.0001  16.0024  16.0041  16.0082  16.0180
    16.0192  16.0279  16.0330  16.0580  16.0656  16.0963  16.1062  16.1094
    16.1640  16.1759  16.1908  16.2027  16.2404  16.2427  16.2511  16.2770
    16.2819  16.2837  16.2864  16.2970  16.2985  16.3721  16.3793  16.3837
    16.4663  16.4691  16.4736  16.4747  16.4799  16.4879  16.5782  16.5919
    16.6023  16.6464  16.7047  16.7048  16.7110  16.7242  16.7266  16.7309
    16.7328  16.7334  16.7398  16.7403  16.7459  16.7517  16.7580  16.7635
    16.8265  16.8279  16.8335  16.8403  16.8404  16.8452  16.8871  16.9195
    16.9506  16.9567  16.9632  16.9746  16.9799  16.9902  17.0042  17.0078
    17.0142  17.0143  17.0196  17.0220  17.0232  17.0361  17.0421  17.0478
    17.0493  17.0605  17.0609  17.0708  17.0747  17.0760  17.0794  17.0831
    17.0928  17.0986  17.1001  17.1089  17.2060  17.2063  17.2412  17.2503
    17.2506  17.2617  17.2672  17.2721  17.2775  17.2896  17.2898  17.2922
    17.4080  17.4297  17.4449  17.4501  17.4560  17.4840  17.4855  17.4883
    17.4938  17.5039  17.5049  17.5060  17.5077  17.5114  17.5174  17.5180
    17.5195  17.5693  17.6351  17.6456  17.6519  17.7107  17.7666  17.7808
    17.7916  17.8385  17.8512  17.8676  17.8719  17.8819  17.8914  17.9426
    17.9500  17.9540  17.9601  17.9609  17.9932  17.9967  18.0077  18.0148
    18.0196  18.0217  18.0290  18.0314  18.0358  18.0376  18.0406  18.0425
    18.0455  18.0507  18.0523  18.0531  18.0742  18.0783  18.0807  18.0824
    18.0842  18.0852  18.0905  18.0980  18.0986  18.1059  18.1076  18.1096
    18.1136  18.1138  18.1156  18.1211  18.1214  18.1263  18.1497  18.1563
    18.1591  18.1874  18.2341  18.2377  18.2458  18.2612  18.2620  18.2647
    18.3417  18.3519  18.3591  18.3929  18.4200  18.4256  18.4259  18.4312
    18.4367  18.4428  18.4456  18.4458  18.4579  18.4588  18.4617  18.4965
    18.5003  18.6395  18.6758  18.6804  18.8397  18.9412  18.9692  18.9842
    18.9908  19.2062  19.2388  19.2417  19.2531  19.2586  19.2606  19.2709
    19.2777  19.2828  19.2849  19.3920  19.3925  19.3979  19.5147  19.5149
    19.5294  19.5571  19.5665  19.5901  19.5966  19.6025  19.6292  19.6303
    19.6355  19.6409  19.6528  19.6687  19.6809  19.6872  19.6901  19.7782
    19.8537  19.8852  19.8958  19.9064  19.9317  19.9409  20.0063  20.0111
    20.0195  20.0343  20.0349  20.0927  20.1060  20.1072  20.2783  20.2869
    20.2962  20.4211  20.5321  20.5484  20.5523  20.6268  20.6537  20.6543
    20.7465  20.7734  20.7783  20.8204  20.8294  20.8943  21.2651  21.2692
    21.2887  21.3137  21.4109  21.6299  21.6777  21.6839  21.7778  21.7896

     occupation numbers 
     1.0000   1.0000   1.0000   1.0000   1.0000   1.0000   1.0000   1.0000
     1.0000   1.0000   1.0000   1.0000   1.0000   1.0000   1.0000   1.0000
     1.0000   1.0000   1.0000   1.0000   1.0000   1.0000   1.0000   1.0000
     1.0000   1.0000   1.0000   1.0000   1.0000   1.0000   1.0000   1.0000
     1.0000   1.0000   1.0000   1.0000   1.0000   1.0000   1.0000   1.0000
     1.0000   1.0000   1.0000   1.0000   1.0000   1.0000   1.0000   1.0000
     1.0000   1.0000   1.0000   1.0000   1.0000   1.0000   1.0000   1.0000
     1.0000   1.0000   1.0000   1.0000   1.0000   1.0000   1.0000   1.0000
     1.0000   1.0000   1.0000   1.0000   1.0000   1.0000   1.0000   1.0000
     1.0000   1.0000   1.0000   1.0000   1.0000   1.0000   1.0000   1.0000
     1.0000   1.0000   1.0000   1.0000   1.0000   1.0000   1.0000   1.0000
     1.0000   1.0000   1.0000   1.0000   1.0000   1.0000   1.0000   1.0000
     1.0000   1.0000   1.0000   1.0000   1.0000   1.0000   1.0000   1.0000
     1.0000   1.0000   1.0000   1.0000   1.0000   1.0000   1.0000   1.0000
     1.0000   1.0000   1.0000   1.0000   1.0000   1.0000   1.0000   1.0000
     1.0000   1.0000   1.0000   1.0000   1.0000   1.0000   1.0000   1.0000
     1.0000   1.0000   1.0000   1.0000   1.0000   1.0000   1.0000   1.0000
     1.0000   1.0000   1.0000   1.0000   1.0000   1.0000   1.0000   1.0000
     1.0000   1.0000   1.0000   1.0000   1.0000   1.0000   1.0000   1.0000
     1.0000   1.0000   1.0000   1.0000   1.0000   1.0000   1.0000   1.0000
     1.0000   1.0000   1.0000   1.0000   1.0000   1.0000   1.0000   1.0000
     1.0000   1.0000   1.0000   1.0000   1.0000   1.0000   1.0000   1.0000
     1.0000   1.0000   1.0000   1.0000   1.0000   1.0000   1.0000   1.0000
     1.0000   1.0000   1.0000   1.0000   1.0000   1.0000   1.0000   1.0000
     1.0000   1.0000   1.0000   1.0000   1.0000   1.0000   1.0000   1.0000
     1.0000   1.0000   1.0000   1.0000   1.0000   1.0000   1.0000   1.0000
     1.0000   1.0000   1.0000   1.0000   1.0000   1.0000   1.0000   1.0000
     1.0000   1.0000   1.0000   1.0000   1.0000   1.0000   1.0000   1.0000
     1.0000   1.0000   1.0000   1.0000   1.0000   1.0000   1.0000   1.0000
     1.0000   1.0000   1.0000   1.0000   1.0000   1.0000   1.0000   1.0000
     1.0000   1.0000   1.0000   1.0000   1.0000   1.0000   1.0000   1.0000
     1.0000   1.0000   1.0000   1.0000   1.0000   1.0000   1.0000   1.0000
     1.0000   1.0000   1.0000   1.0000   1.0000   1.0000   1.0000   1.0000
     1.0000   1.0000   1.0000   1.0000   1.0000   1.0000   1.0000   1.0000
     1.0000   1.0000   1.0000   1.0000   1.0000   1.0000   1.0000   1.0000
     1.0000   1.0000   1.0000   1.0000   1.0000   1.0000   1.0000   1.0000
     1.0000   1.0000   1.0000   1.0000   1.0000   1.0000   1.0000   1.0000
     1.0000   1.0000   1.0000   1.0000   1.0000   1.0000   1.0000   1.0000
     1.0000   1.0000   1.0000   1.0000   1.0000   1.0000   1.0000   1.0000
     1.0000   1.0000   1.0000   1.0000   1.0000   1.0000   1.0000   1.0000
     1.0000   1.0000   1.0000   1.0000   1.0000   1.0000   1.0000   1.0000
     1.0000   1.0000   1.0000   1.0000   1.0000   1.0000   1.0000   1.0000
     1.0000   1.0000   1.0000   1.0000   1.0000   1.0000   1.0000   1.0000
     1.0000   1.0000   1.0000   1.0000   1.0000   1.0000   1.0000   1.0000
     1.0000   1.0000   1.0000   1.0000   1.0000   1.0000   1.0000   1.0000
     1.0000   1.0000   1.0000   1.0000   1.0000   1.0000   1.0000   1.0000
     1.0000   1.0000   1.0000   1.0000   1.0000   1.0000   1.0000   1.0000
     1.0000   1.0000   1.0000   1.0000   1.0000   1.0000   1.0000   1.0000
     1.0000   1.0000   1.0000   1.0000   1.0000   1.0000   1.0000   1.0000
     1.0000   1.0000   1.0000   1.0000   1.0000   1.0000   1.0000   1.0000
     1.0000   1.0000   1.0000   1.0000   1.0000   1.0000   1.0000   1.0000
     1.0000   1.0000   1.0000   1.0000   1.0000   1.0000   1.0000   1.0000
     1.0000   1.0000   1.0000   1.0000   1.0000   1.0000   1.0000   1.0000
     1.0000   1.0000   1.0000   1.0000   1.0000   1.0000   1.0000   1.0000
     1.0000   1.0000   1.0000   1.0000   1.0000   1.0000   1.0000   1.0000
     1.0000   1.0000   1.0000   1.0000   1.0000   1.0000   1.0000   1.0000
     1.0000   1.0000   1.0000   1.0000   1.0000   1.0000   1.0000   1.0000
     1.0000   1.0000   1.0000   1.0000   1.0000   1.0000   1.0000   1.0000
     1.0000   1.0000   1.0000   1.0000   1.0000   1.0000   1.0000   1.0000
     1.0000   1.0000   1.0000   1.0000   1.0000   1.0000   1.0000   1.0000
     1.0000   1.0000   1.0000   1.0000   1.0000   1.0000   1.0000   1.0000
     1.0000   1.0000   1.0000   1.0000   1.0000   1.0000   1.0000   1.0000
     1.0000   1.0000   1.0000   1.0000   1.0000   1.0000   1.0000   1.0000
     1.0000   1.0000   1.0000   1.0000   1.0000   1.0000   1.0000   1.0000
     1.0000   1.0000   1.0000   1.0000   1.0000   1.0000   1.0000   1.0000
     1.0000   1.0000   1.0000   1.0000   1.0000   1.0000   1.0000   1.0000
     1.0000   1.0000   1.0000   1.0000   1.0000   1.0000   1.0000   1.0000
     1.0000   1.0000   1.0000   1.0000   1.0000   1.0000   1.0000   1.0000
     1.0000   1.0000   1.0000   1.0000   1.0000   1.0000   1.0000   1.0000
     0.9999   0.9999   0.9999   0.9999   0.9999   0.9999   0.9995   0.9994
     0.9992   0.9984   0.9958   0.9958   0.9954   0.9944   0.9942   0.9938
     0.9936   0.9936   0.9930   0.9929   0.9923   0.9917   0.9909   0.9901
     0.9775   0.9771   0.9755   0.9734   0.9733   0.9718   0.9544   0.9359
     0.9130   0.9079   0.9021   0.8916   0.8863   0.8757   0.8601   0.8559
     0.8482   0.8481   0.8416   0.8385   0.8369   0.8199   0.8117   0.8036
     0.8014   0.7847   0.7842   0.7687   0.7625   0.7604   0.7550   0.7488
     0.7326   0.7225   0.7198   0.7043   0.5129   0.5123   0.4400   0.4215
     0.4209   0.3984   0.3874   0.3777   0.3671   0.3437   0.3433   0.3387
     0.1544   0.1292   0.1133   0.1081   0.1026   0.0789   0.0778   0.0756
     0.0716   0.0648   0.0641   0.0634   0.0623   0.0599   0.0564   0.0560
     0.0551   0.0317   0.0140   0.0121   0.0111   0.0048   0.0020   0.0016
     0.0013   0.0006   0.0004   0.0003   0.0003   0.0002   0.0002   0.0001
     0.0001   0.0001   0.0001   0.0000   0.0000   0.0000   0.0000   0.0000
     0.0000   0.0000   0.0000   0.0000   0.0000   0.0000   0.0000   0.0000
     0.0000   0.0000   0.0000   0.0000   0.0000   0.0000   0.0000   0.0000
     0.0000   0.0000   0.0000   0.0000   0.0000   0.0000   0.0000   0.0000
     0.0000   0.0000   0.0000   0.0000   0.0000   0.0000   0.0000   0.0000
     0.0000   0.0000   0.0000   0.0000   0.0000   0.0000   0.0000   0.0000
     0.0000   0.0000   0.0000   0.0000   0.0000   0.0000   0.0000   0.0000
     0.0000   0.0000   0.0000   0.0000   0.0000   0.0000   0.0000   0.0000
     0.0000   0.0000   0.0000   0.0000   0.0000   0.0000   0.0000   0.0000
     0.0000   0.0000   0.0000   0.0000   0.0000   0.0000   0.0000   0.0000
     0.0000   0.0000   0.0000   0.0000   0.0000   0.0000   0.0000   0.0000
     0.0000   0.0000   0.0000   0.0000   0.0000   0.0000   0.0000   0.0000
     0.0000   0.0000   0.0000   0.0000   0.0000   0.0000   0.0000   0.0000
     0.0000   0.0000   0.0000   0.0000   0.0000   0.0000   0.0000   0.0000
     0.0000   0.0000   0.0000   0.0000   0.0000   0.0000   0.0000   0.0000
     0.0000   0.0000   0.0000   0.0000   0.0000   0.0000   0.0000   0.0000
     0.0000   0.0000   0.0000   0.0000   0.0000   0.0000   0.0000   0.0000
     0.0000   0.0000   0.0000   0.0000   0.0000   0.0000   0.0000   0.0000

          k = 0.0000 0.0000-0.5700 (100616 PWs)   bands (ev):

   -69.1493 -69.1395 -69.0695 -69.0554 -69.0343 -69.0339 -69.0324 -69.0318
   -69.0190 -69.0185 -69.0185 -69.0181 -69.0163 -69.0160 -69.0131 -69.0127
   -69.0127 -69.0118 -69.0091 -69.0071 -69.0070 -69.0068 -69.0067 -69.0067
   -69.0065 -69.0064 -69.0062 -69.0047 -69.0044 -69.0043 -69.0040 -69.0014
   -68.9951 -68.9951 -68.9774 -68.9771 -68.6456 -68.6421 -68.6413 -68.6397
   -68.6393 -68.6365 -68.6365 -68.6360 -68.6360 -68.6345 -68.6344 -68.6341
   -68.6341 -68.6333 -68.6331 -68.6327 -68.6326 -68.6325 -68.6324 -68.6320
   -68.6319 -68.6319 -68.6316 -68.6314 -68.6314 -68.6311 -68.6311 -68.6308
   -68.6307 -68.6302 -68.6292 -68.6292 -68.6287 -68.6287 -68.6236 -68.6236
   -35.4825 -35.4063 -35.3481 -35.3045 -35.3038 -35.3033 -35.3028 -35.3002
   -35.2988 -35.2964 -35.2957 -35.2953 -35.2949 -35.2886 -35.2884 -35.2549
   -35.2402 -35.2384 -35.2377 -35.2364 -35.2355 -35.2351 -35.2347 -35.2315
   -35.2300 -35.2284 -35.2281 -35.2277 -35.2268 -35.2259 -35.2257 -35.2252
   -35.2245 -35.2232 -35.2196 -35.2176 -35.2173 -35.2169 -35.2166 -35.1879
   -35.1842 -35.1815 -35.1814 -35.1782 -35.1775 -35.1736 -35.1724 -35.1720
   -35.1719 -35.1717 -35.1712 -35.1712 -35.1708 -35.1702 -35.1698 -35.1694
   -35.1667 -35.1649 -35.1633 -35.1633 -35.1610 -35.1595 -35.1589 -35.1583
   -35.1577 -35.1573 -35.1562 -35.1560 -35.1541 -35.1534 -35.1374 -35.1357
   -35.1075 -35.1014 -35.0871 -35.0699 -35.0504 -35.0473 -35.0451 -35.0429
   -35.0368 -35.0361 -35.0314 -35.0289 -35.0275 -35.0274 -35.0259 -35.0250
   -35.0221 -35.0208 -35.0190 -35.0178 -35.0164 -35.0158 -35.0132 -35.0127
   -35.0124 -35.0118 -35.0109 -35.0106 -35.0082 -35.0066 -35.0061 -35.0037
   -34.9992 -34.9991 -34.9929 -34.9865 -34.8422 -34.8377 -34.8349 -34.8334
   -34.8311 -34.8304 -34.8273 -34.8266 -34.8263 -34.8261 -34.8248 -34.8245
   -34.8235 -34.8233 -34.8230 -34.8228 -34.8225 -34.8217 -34.8211 -34.8209
   -34.8208 -34.8202 -34.8200 -34.8197 -34.8194 -34.8184 -34.8177 -34.8173
   -34.8163 -34.8163 -34.8163 -34.8159 -34.8143 -34.8127 -34.8111 -34.8104
   -34.7663 -34.7652 -34.7640 -34.7632 -34.7627 -34.7618 -34.7614 -34.7602
   -34.7601 -34.7601 -34.7598 -34.7593 -34.7591 -34.7589 -34.7587 -34.7585
   -34.7581 -34.7576 -34.7576 -34.7572 -34.7568 -34.7567 -34.7563 -34.7562
   -34.7561 -34.7557 -34.7553 -34.7549 -34.7548 -34.7523 -34.7503 -34.7483
   -34.7459 -34.7456 -34.7409 -34.7379 -34.7093 -34.7013 -34.6992 -34.6990
   -34.6960 -34.6956 -34.6937 -34.6926 -34.6907 -34.6907 -34.6899 -34.6890
   -34.6882 -34.6876 -34.6848 -34.6830 -34.6830 -34.6821 -34.6818 -34.6806
   -34.6800 -34.6794 -34.6788 -34.6754 -34.6749 -34.6748 -34.6727 -34.6727
   -34.6725 -34.6721 -34.6717 -34.6713 -34.6707 -34.6701 -34.6634 -34.6629
     3.5273   3.5776   4.4162   4.5416   4.5537   4.5545   4.5550   4.5616
     4.6000   4.6456   4.6480   4.6530   4.6572   4.6610   5.1158   5.4782
     5.4988   5.5110   5.5154   5.5196   5.5207   5.5243   5.5577   5.5592
     5.5694   5.5736   5.5765   5.5776   5.5930   5.6019   5.9061   5.9124
     5.9255   5.9497   5.9587   6.3383   8.6855   9.8760   9.8767   9.8872
     9.9177   9.9249   9.9257   9.9296   9.9357   9.9867  10.0017  10.0037
    10.0051  10.3923  10.7635  10.8430  10.8505  10.8547  10.8940  10.8952
    10.8981  10.9483  11.0781  11.0785  11.0788  11.0824  11.0849  11.0994
    11.1018  11.1066  11.1088  11.1094  11.1214  11.2076  11.2380  11.2381
    11.2484  11.4315  11.5250  11.5274  11.8601  11.8617  11.8672  12.1006
    12.1067  12.1578  12.1579  12.1766  12.1772  12.1804  12.1812  12.2798
    12.2896  12.2958  12.3404  12.3528  12.3542  12.4500  12.4554  12.4812
    12.4893  12.5627  12.6699  12.6969  12.7007  12.7091  12.7110  12.7118
    12.7135  12.7153  12.7196  12.7234  12.7249  12.7271  12.7291  12.7462
    12.7501  12.7532  12.7576  12.7596  12.7715  12.8065  12.8068  12.8124
    12.8143  12.8205  12.8312  12.8692  12.8731  12.9209  12.9328  12.9344
    12.9399  12.9445  12.9524  13.1745  13.1846  13.1917  13.2409  13.2460
    13.2586  13.2657  13.6051  13.6090  13.6227  13.6233  13.6282  13.6308
    13.6440  14.4726  14.4975  14.5788  14.6097  14.6528  14.6543  14.6560
    14.6572  14.6596  14.6896  14.7257  14.7339  14.7343  14.7359  14.7386
    14.7716  14.7997  14.8079  14.8116  14.8204  14.8594  14.8650  14.9048
    14.9174  14.9276  14.9279  14.9353  14.9408  14.9441  14.9484  14.9488
    14.9499  14.9634  14.9695  14.9706  14.9851  15.0033  15.0107  15.0171
    15.0330  15.0380  15.0449  15.0454  15.0485  15.0576  15.0585  15.0622
    15.0631  15.0642  15.0647  15.0668  15.0724  15.0733  15.1814  15.2574
    15.2721  15.2836  15.2857  15.2885  15.2971  15.3191  15.3206  15.3324
    15.3417  15.3432  15.4829  15.4890  15.4951  15.4967  15.4970  15.4972
    15.5024  15.5085  15.5356  15.5437  15.6861  15.6984  15.6985  15.7079
    15.8020  15.8052  15.8093  15.8103  15.8118  15.8133  15.9396  15.9430
    15.9627  15.9770  15.9786  15.9814  16.0111  16.0193  16.0249  16.0662
    16.0735  16.0817  16.0849  16.0968  16.1052  16.1138  16.1174  16.1199
    16.1932  16.2229  16.2295  16.2331  16.2332  16.2335  16.2420  16.2972
    16.3194  16.3207  16.3870  16.3920  16.3929  16.3947  16.4017  16.4032
    16.4496  16.4539  16.4638  16.5399  16.5537  16.5555  16.5578  16.5645
    16.5720  16.6418  16.6940  16.7033  16.7036  16.7070  16.7207  16.7243
    16.7302  16.7308  16.7350  16.7821  16.8039  16.8071  16.8148  16.8290
    16.8301  16.8430  16.8455  16.8628  16.8633  16.8727  16.8856  16.8932
    16.9009  16.9036  16.9071  16.9219  16.9248  16.9316  16.9413  16.9540
    16.9548  16.9551  16.9583  16.9661  16.9799  16.9831  16.9841  16.9973
    17.0020  17.0097  17.0868  17.0986  17.1052  17.1150  17.1183  17.1248
    17.1343  17.1391  17.1399  17.1432  17.1445  17.1622  17.1932  17.1974
    17.1985  17.1995  17.2023  17.2110  17.2133  17.2506  17.2582  17.2628
    17.3839  17.4384  17.4526  17.4539  17.4680  17.4690  17.4720  17.4813
    17.4989  17.5019  17.5039  17.5149  17.5216  17.5235  17.5358  17.5516
    17.5534  17.5568  17.5604  17.5604  17.6632  17.6844  17.7435  17.7578
    17.8368  17.8610  17.9024  17.9176  17.9230  17.9293  17.9390  17.9423
    17.9431  17.9434  17.9449  17.9542  17.9697  17.9790  17.9883  17.9885
    17.9946  18.0119  18.0133  18.0299  18.0302  18.0422  18.0456  18.0488
    18.0500  18.0599  18.0673  18.0762  18.0905  18.0929  18.0950  18.0956
    18.1001  18.1008  18.1012  18.1028  18.1091  18.1109  18.1122  18.1131
    18.1166  18.1189  18.1202  18.1223  18.1230  18.1245  18.1292  18.1415
    18.1480  18.1489  18.2219  18.2258  18.2338  18.2662  18.2680  18.2694
    18.4172  18.4252  18.4437  18.4456  18.4518  18.4519  18.4728  18.5010
    18.5011  18.5054  18.5088  18.5089  18.5101  18.5132  18.5153  18.5174
    18.5182  18.5188  18.7270  18.7319  18.9036  19.0315  19.1214  19.1252
    19.1357  19.1365  19.1436  19.1455  19.1904  19.1913  19.1962  19.1979
    19.2287  19.2529  19.2540  19.2657  19.2658  19.2792  19.3056  19.3215
    19.3222  19.3229  19.3255  19.3360  19.5306  19.5378  19.5447  19.5646
    19.7133  19.7384  19.7419  19.7841  19.8221  19.8222  19.8348  19.8446
    19.8492  19.8641  19.8797  19.9149  19.9560  20.0653  20.1203  20.1344
    20.2437  20.2597  20.2780  20.3082  20.3108  20.3140  20.3179  20.3190
    20.3193  20.3220  20.3268  20.3291  20.3339  20.3357  20.4165  20.4265
    20.4310  20.5328  20.5409  20.5467  21.0977  21.1265  21.1337  21.1365
    21.1621  21.1679  21.4104  21.4581  21.4663  21.5325  22.1729  22.1966

     occupation numbers 
     1.0000   1.0000   1.0000   1.0000   1.0000   1.0000   1.0000   1.0000
     1.0000   1.0000   1.0000   1.0000   1.0000   1.0000   1.0000   1.0000
     1.0000   1.0000   1.0000   1.0000   1.0000   1.0000   1.0000   1.0000
     1.0000   1.0000   1.0000   1.0000   1.0000   1.0000   1.0000   1.0000
     1.0000   1.0000   1.0000   1.0000   1.0000   1.0000   1.0000   1.0000
     1.0000   1.0000   1.0000   1.0000   1.0000   1.0000   1.0000   1.0000
     1.0000   1.0000   1.0000   1.0000   1.0000   1.0000   1.0000   1.0000
     1.0000   1.0000   1.0000   1.0000   1.0000   1.0000   1.0000   1.0000
     1.0000   1.0000   1.0000   1.0000   1.0000   1.0000   1.0000   1.0000
     1.0000   1.0000   1.0000   1.0000   1.0000   1.0000   1.0000   1.0000
     1.0000   1.0000   1.0000   1.0000   1.0000   1.0000   1.0000   1.0000
     1.0000   1.0000   1.0000   1.0000   1.0000   1.0000   1.0000   1.0000
     1.0000   1.0000   1.0000   1.0000   1.0000   1.0000   1.0000   1.0000
     1.0000   1.0000   1.0000   1.0000   1.0000   1.0000   1.0000   1.0000
     1.0000   1.0000   1.0000   1.0000   1.0000   1.0000   1.0000   1.0000
     1.0000   1.0000   1.0000   1.0000   1.0000   1.0000   1.0000   1.0000
     1.0000   1.0000   1.0000   1.0000   1.0000   1.0000   1.0000   1.0000
     1.0000   1.0000   1.0000   1.0000   1.0000   1.0000   1.0000   1.0000
     1.0000   1.0000   1.0000   1.0000   1.0000   1.0000   1.0000   1.0000
     1.0000   1.0000   1.0000   1.0000   1.0000   1.0000   1.0000   1.0000
     1.0000   1.0000   1.0000   1.0000   1.0000   1.0000   1.0000   1.0000
     1.0000   1.0000   1.0000   1.0000   1.0000   1.0000   1.0000   1.0000
     1.0000   1.0000   1.0000   1.0000   1.0000   1.0000   1.0000   1.0000
     1.0000   1.0000   1.0000   1.0000   1.0000   1.0000   1.0000   1.0000
     1.0000   1.0000   1.0000   1.0000   1.0000   1.0000   1.0000   1.0000
     1.0000   1.0000   1.0000   1.0000   1.0000   1.0000   1.0000   1.0000
     1.0000   1.0000   1.0000   1.0000   1.0000   1.0000   1.0000   1.0000
     1.0000   1.0000   1.0000   1.0000   1.0000   1.0000   1.0000   1.0000
     1.0000   1.0000   1.0000   1.0000   1.0000   1.0000   1.0000   1.0000
     1.0000   1.0000   1.0000   1.0000   1.0000   1.0000   1.0000   1.0000
     1.0000   1.0000   1.0000   1.0000   1.0000   1.0000   1.0000   1.0000
     1.0000   1.0000   1.0000   1.0000   1.0000   1.0000   1.0000   1.0000
     1.0000   1.0000   1.0000   1.0000   1.0000   1.0000   1.0000   1.0000
     1.0000   1.0000   1.0000   1.0000   1.0000   1.0000   1.0000   1.0000
     1.0000   1.0000   1.0000   1.0000   1.0000   1.0000   1.0000   1.0000
     1.0000   1.0000   1.0000   1.0000   1.0000   1.0000   1.0000   1.0000
     1.0000   1.0000   1.0000   1.0000   1.0000   1.0000   1.0000   1.0000
     1.0000   1.0000   1.0000   1.0000   1.0000   1.0000   1.0000   1.0000
     1.0000   1.0000   1.0000   1.0000   1.0000   1.0000   1.0000   1.0000
     1.0000   1.0000   1.0000   1.0000   1.0000   1.0000   1.0000   1.0000
     1.0000   1.0000   1.0000   1.0000   1.0000   1.0000   1.0000   1.0000
     1.0000   1.0000   1.0000   1.0000   1.0000   1.0000   1.0000   1.0000
     1.0000   1.0000   1.0000   1.0000   1.0000   1.0000   1.0000   1.0000
     1.0000   1.0000   1.0000   1.0000   1.0000   1.0000   1.0000   1.0000
     1.0000   1.0000   1.0000   1.0000   1.0000   1.0000   1.0000   1.0000
     1.0000   1.0000   1.0000   1.0000   1.0000   1.0000   1.0000   1.0000
     1.0000   1.0000   1.0000   1.0000   1.0000   1.0000   1.0000   1.0000
     1.0000   1.0000   1.0000   1.0000   1.0000   1.0000   1.0000   1.0000
     1.0000   1.0000   1.0000   1.0000   1.0000   1.0000   1.0000   1.0000
     1.0000   1.0000   1.0000   1.0000   1.0000   1.0000   1.0000   1.0000
     1.0000   1.0000   1.0000   1.0000   1.0000   1.0000   1.0000   1.0000
     1.0000   1.0000   1.0000   1.0000   1.0000   1.0000   1.0000   1.0000
     1.0000   1.0000   1.0000   1.0000   1.0000   1.0000   1.0000   1.0000
     1.0000   1.0000   1.0000   1.0000   1.0000   1.0000   1.0000   1.0000
     1.0000   1.0000   1.0000   1.0000   1.0000   1.0000   1.0000   1.0000
     1.0000   1.0000   1.0000   1.0000   1.0000   1.0000   1.0000   1.0000
     1.0000   1.0000   1.0000   1.0000   1.0000   1.0000   1.0000   1.0000
     1.0000   1.0000   1.0000   1.0000   1.0000   1.0000   1.0000   1.0000
     1.0000   1.0000   1.0000   1.0000   1.0000   1.0000   1.0000   1.0000
     1.0000   1.0000   1.0000   1.0000   1.0000   1.0000   1.0000   1.0000
     1.0000   1.0000   1.0000   1.0000   1.0000   1.0000   1.0000   1.0000
     1.0000   1.0000   1.0000   1.0000   1.0000   1.0000   1.0000   1.0000
     1.0000   1.0000   1.0000   1.0000   1.0000   1.0000   1.0000   1.0000
     1.0000   1.0000   1.0000   1.0000   1.0000   1.0000   1.0000   1.0000
     1.0000   1.0000   1.0000   1.0000   1.0000   1.0000   1.0000   1.0000
     1.0000   1.0000   1.0000   1.0000   1.0000   1.0000   1.0000   1.0000
     1.0000   1.0000   1.0000   1.0000   1.0000   1.0000   1.0000   1.0000
     1.0000   1.0000   1.0000   1.0000   1.0000   1.0000   1.0000   1.0000
     1.0000   1.0000   1.0000   1.0000   1.0000   1.0000   1.0000   1.0000
     1.0000   1.0000   0.9999   0.9998   0.9997   0.9997   0.9997   0.9996
     0.9996   0.9985   0.9965   0.9959   0.9959   0.9957   0.9947   0.9944
     0.9939   0.9938   0.9934   0.9873   0.9831   0.9824   0.9805   0.9768
     0.9765   0.9725   0.9716   0.9653   0.9651   0.9612   0.9552   0.9513
     0.9472   0.9456   0.9436   0.9343   0.9324   0.9276   0.9204   0.9102
     0.9095   0.9093   0.9065   0.8996   0.8863   0.8831   0.8821   0.8679
     0.8627   0.8537   0.7427   0.7225   0.7109   0.6933   0.6872   0.6750
     0.6572   0.6479   0.6464   0.6401   0.6375   0.6024   0.5393   0.5306
     0.5282   0.5262   0.5205   0.5025   0.4976   0.4208   0.4055   0.3963
     0.1861   0.1199   0.1057   0.1045   0.0918   0.0909   0.0884   0.0809
     0.0681   0.0661   0.0647   0.0578   0.0539   0.0528   0.0463   0.0389
     0.0381   0.0367   0.0352   0.0351   0.0095   0.0071   0.0029   0.0023
     0.0006   0.0004   0.0002   0.0001   0.0001   0.0001   0.0001   0.0001
     0.0001   0.0001   0.0001   0.0001   0.0000   0.0000   0.0000   0.0000
     0.0000   0.0000   0.0000   0.0000   0.0000   0.0000   0.0000   0.0000
     0.0000   0.0000   0.0000   0.0000   0.0000   0.0000   0.0000   0.0000
     0.0000   0.0000   0.0000   0.0000   0.0000   0.0000   0.0000   0.0000
     0.0000   0.0000   0.0000   0.0000   0.0000   0.0000   0.0000   0.0000
     0.0000   0.0000   0.0000   0.0000   0.0000   0.0000   0.0000   0.0000
     0.0000   0.0000   0.0000   0.0000   0.0000   0.0000   0.0000   0.0000
     0.0000   0.0000   0.0000   0.0000   0.0000   0.0000   0.0000   0.0000
     0.0000   0.0000   0.0000   0.0000   0.0000   0.0000   0.0000   0.0000
     0.0000   0.0000   0.0000   0.0000   0.0000   0.0000   0.0000   0.0000
     0.0000   0.0000   0.0000   0.0000   0.0000   0.0000   0.0000   0.0000
     0.0000   0.0000   0.0000   0.0000   0.0000   0.0000   0.0000   0.0000
     0.0000   0.0000   0.0000   0.0000   0.0000   0.0000   0.0000   0.0000
     0.0000   0.0000   0.0000   0.0000   0.0000   0.0000   0.0000   0.0000
     0.0000   0.0000   0.0000   0.0000   0.0000   0.0000   0.0000   0.0000
     0.0000   0.0000   0.0000   0.0000   0.0000   0.0000   0.0000   0.0000
     0.0000   0.0000   0.0000   0.0000   0.0000   0.0000   0.0000   0.0000
     0.0000   0.0000   0.0000   0.0000   0.0000   0.0000   0.0000   0.0000

          k = 0.0000 0.2887 0.0000 (100583 PWs)   bands (ev):

   -69.1493 -69.1395 -69.0695 -69.0554 -69.0343 -69.0339 -69.0324 -69.0318
   -69.0190 -69.0185 -69.0185 -69.0181 -69.0164 -69.0160 -69.0131 -69.0127
   -69.0127 -69.0118 -69.0091 -69.0071 -69.0070 -69.0068 -69.0067 -69.0067
   -69.0065 -69.0064 -69.0062 -69.0047 -69.0044 -69.0043 -69.0041 -69.0014
   -68.9951 -68.9951 -68.9774 -68.9771 -68.6456 -68.6421 -68.6413 -68.6397
   -68.6393 -68.6365 -68.6365 -68.6360 -68.6360 -68.6345 -68.6344 -68.6341
   -68.6341 -68.6333 -68.6331 -68.6327 -68.6326 -68.6325 -68.6324 -68.6320
   -68.6319 -68.6319 -68.6317 -68.6314 -68.6314 -68.6311 -68.6311 -68.6308
   -68.6307 -68.6302 -68.6292 -68.6292 -68.6287 -68.6287 -68.6236 -68.6236
   -35.4825 -35.4063 -35.3481 -35.3044 -35.3035 -35.3034 -35.3028 -35.3002
   -35.2990 -35.2960 -35.2958 -35.2954 -35.2951 -35.2885 -35.2885 -35.2548
   -35.2401 -35.2369 -35.2368 -35.2363 -35.2361 -35.2357 -35.2350 -35.2312
   -35.2301 -35.2286 -35.2281 -35.2270 -35.2269 -35.2261 -35.2259 -35.2249
   -35.2248 -35.2245 -35.2191 -35.2187 -35.2176 -35.2172 -35.2167 -35.1876
   -35.1831 -35.1818 -35.1796 -35.1783 -35.1765 -35.1740 -35.1735 -35.1727
   -35.1721 -35.1721 -35.1714 -35.1709 -35.1705 -35.1702 -35.1688 -35.1686
   -35.1683 -35.1644 -35.1636 -35.1631 -35.1610 -35.1595 -35.1592 -35.1588
   -35.1581 -35.1573 -35.1552 -35.1551 -35.1545 -35.1544 -35.1373 -35.1359
   -35.1074 -35.1012 -35.0870 -35.0694 -35.0506 -35.0449 -35.0442 -35.0417
   -35.0382 -35.0373 -35.0315 -35.0302 -35.0297 -35.0278 -35.0251 -35.0229
   -35.0213 -35.0208 -35.0194 -35.0183 -35.0182 -35.0154 -35.0147 -35.0138
   -35.0132 -35.0127 -35.0116 -35.0112 -35.0097 -35.0077 -35.0043 -35.0014
   -34.9976 -34.9968 -34.9935 -34.9858 -34.8399 -34.8395 -34.8332 -34.8306
   -34.8300 -34.8298 -34.8293 -34.8269 -34.8265 -34.8260 -34.8259 -34.8253
   -34.8242 -34.8230 -34.8229 -34.8226 -34.8224 -34.8221 -34.8218 -34.8217
   -34.8214 -34.8208 -34.8202 -34.8199 -34.8198 -34.8191 -34.8191 -34.8183
   -34.8179 -34.8175 -34.8155 -34.8155 -34.8130 -34.8123 -34.8099 -34.8050
   -34.7680 -34.7674 -34.7671 -34.7652 -34.7641 -34.7636 -34.7629 -34.7613
   -34.7607 -34.7606 -34.7602 -34.7596 -34.7595 -34.7592 -34.7591 -34.7582
   -34.7570 -34.7562 -34.7559 -34.7557 -34.7554 -34.7548 -34.7546 -34.7542
   -34.7541 -34.7536 -34.7531 -34.7527 -34.7515 -34.7512 -34.7506 -34.7502
   -34.7496 -34.7494 -34.7399 -34.7391 -34.7086 -34.7004 -34.7000 -34.6984
   -34.6961 -34.6956 -34.6941 -34.6940 -34.6914 -34.6909 -34.6906 -34.6897
   -34.6892 -34.6871 -34.6841 -34.6832 -34.6824 -34.6810 -34.6803 -34.6800
   -34.6796 -34.6788 -34.6786 -34.6752 -34.6750 -34.6750 -34.6729 -34.6728
   -34.6727 -34.6723 -34.6718 -34.6717 -34.6709 -34.6705 -34.6633 -34.6630
     3.3385   3.9029   4.1411   4.1847   4.3693   4.4208   4.6255   4.6478
     4.8069   4.8440   4.8595   5.0079   5.0369   5.0414   5.0512   5.2562
     5.2644   5.3332   5.3550   5.3580   5.3654   5.3970   5.4178   5.4560
     5.4683   5.6957   5.7031   5.7524   5.7580   5.7640   5.7643   5.7685
     5.8629   5.8633   6.1432   6.1461   8.7181   9.7556   9.8137   9.9175
    10.2167  10.2195  10.2233  10.2945  10.3404  10.3409  10.3977  10.5062
    10.6250  10.6278  10.6422  10.6534  10.6571  10.6619  10.6629  10.6647
    10.6812  10.7208  10.7773  10.8685  10.8722  10.8740  10.9143  10.9456
    11.0556  11.0568  11.1225  11.1940  11.2548  11.3257  11.3328  11.3855
    11.4102  11.4135  11.4712  11.4915  11.4916  11.5533  11.5722  11.5759
    11.5766  11.9248  11.9659  11.9782  12.1169  12.1209  12.1368  12.1371
    12.1488  12.1514  12.1514  12.2408  12.2625  12.2768  12.3145  12.3161
    12.3239  12.3433  12.3573  12.3616  12.5318  12.5516  12.5985  12.6442
    12.6701  12.6800  12.6898  12.6930  12.6996  12.7298  12.7616  12.7691
    12.8302  12.8789  12.8961  12.9314  12.9482  12.9498  12.9594  12.9685
    12.9691  12.9729  12.9734  12.9918  12.9987  13.1915  13.2204  13.2313
    13.2350  13.2962  13.3034  13.3104  13.3147  13.3667  13.4007  13.4578
    13.4638  13.4712  13.4759  13.4990  13.6040  13.8260  13.8353  13.9663
    13.9797  14.4548  14.5278  14.5396  14.5422  14.5475  14.5675  14.5767
    14.6197  14.6303  14.6807  14.6963  14.7423  14.7533  14.7561  14.7629
    14.7674  14.7677  14.7710  14.7727  14.7770  14.7912  14.7928  14.8238
    14.8413  14.8460  14.8506  14.8547  14.8793  14.8912  14.8961  14.9027
    14.9144  14.9224  14.9540  14.9633  14.9704  14.9715  14.9812  14.9976
    15.0014  15.0133  15.0177  15.0203  15.0972  15.1178  15.1222  15.1318
    15.1370  15.1512  15.1596  15.1619  15.1674  15.2225  15.2673  15.2790
    15.2883  15.2920  15.2925  15.3302  15.3438  15.3515  15.4005  15.4265
    15.4338  15.4603  15.4725  15.4736  15.4745  15.4780  15.5005  15.5080
    15.5097  15.5118  15.5164  15.5251  15.5275  15.6348  15.6389  15.6462
    15.6970  15.7794  15.8655  15.8725  15.9166  15.9435  15.9484  15.9506
    15.9692  15.9870  15.9909  16.0042  16.0076  16.0119  16.0238  16.0255
    16.0290  16.0418  16.0651  16.0653  16.0927  16.0966  16.1035  16.1155
    16.1238  16.1274  16.1297  16.1366  16.1608  16.1721  16.1870  16.2019
    16.2197  16.2327  16.3248  16.3337  16.3474  16.3497  16.3688  16.3688
    16.5023  16.5106  16.5164  16.5259  16.5292  16.5315  16.5411  16.5699
    16.5778  16.5793  16.6332  16.6565  16.6826  16.6987  16.7072  16.7202
    16.7295  16.7367  16.7445  16.7507  16.7590  16.7622  16.7706  16.7801
    16.8024  16.8062  16.8076  16.8263  16.8387  16.8527  16.8591  16.8637
    16.8963  16.9589  16.9888  16.9980  17.0140  17.0165  17.0300  17.0358
    17.0410  17.0469  17.0471  17.0498  17.0536  17.0554  17.0606  17.0642
    17.0672  17.0781  17.0784  17.0909  17.0945  17.1049  17.1128  17.1181
    17.1196  17.1389  17.1741  17.1910  17.1942  17.2096  17.2567  17.2681
    17.2739  17.2837  17.2842  17.2903  17.2955  17.3015  17.3289  17.3510
    17.3931  17.3950  17.4103  17.4126  17.4242  17.4276  17.4409  17.4465
    17.4540  17.4645  17.4679  17.4852  17.4961  17.5003  17.5058  17.5173
    17.5200  17.5622  17.5649  17.6970  17.7040  17.7098  17.7907  17.8105
    17.8161  17.8393  17.8483  17.8490  17.8576  17.8678  17.8733  17.8793
    17.8941  17.9357  17.9510  17.9581  17.9900  17.9910  17.9962  18.0030
    18.0054  18.0081  18.0132  18.0150  18.0322  18.0336  18.0388  18.0393
    18.0487  18.0547  18.0589  18.0611  18.0661  18.0735  18.0785  18.0877
    18.0907  18.0952  18.1058  18.1083  18.1331  18.1379  18.1425  18.1456
    18.1459  18.1513  18.1570  18.1678  18.1693  18.1736  18.1742  18.1768
    18.2140  18.2195  18.2261  18.2347  18.2521  18.2587  18.2614  18.2785
    18.2788  18.2836  18.2844  18.3192  18.3211  18.3227  18.3286  18.3324
    18.3627  18.3639  18.3662  18.3748  18.4004  18.4810  18.4851  18.4902
    18.5378  18.5404  18.7447  18.7830  18.8041  18.9464  18.9659  18.9787
    18.9918  19.0977  19.2117  19.2640  19.2977  19.3113  19.3176  19.3240
    19.3441  19.3550  19.3692  19.3739  19.3880  19.4021  19.4167  19.4231
    19.4653  19.4758  19.4908  19.4992  19.5159  19.5295  19.5375  19.5409
    19.5844  19.5922  19.8312  19.8522  19.8570  19.8714  19.8888  19.8964
    19.9057  19.9147  19.9412  19.9724  20.0196  20.0618  20.0696  20.0759
    20.0946  20.1544  20.1800  20.1990  20.2008  20.2486  20.3214  20.3241
    20.3581  20.3813  20.4178  20.5017  20.5095  20.5738  20.5872  20.5878
    20.5957  20.8061  20.9334  20.9464  21.0991  21.1158  21.1771  21.2534
    21.3220  21.6658  21.6759  21.7107  21.7226  21.7564  21.7686  21.7808

     occupation numbers 
     1.0000   1.0000   1.0000   1.0000   1.0000   1.0000   1.0000   1.0000
     1.0000   1.0000   1.0000   1.0000   1.0000   1.0000   1.0000   1.0000
     1.0000   1.0000   1.0000   1.0000   1.0000   1.0000   1.0000   1.0000
     1.0000   1.0000   1.0000   1.0000   1.0000   1.0000   1.0000   1.0000
     1.0000   1.0000   1.0000   1.0000   1.0000   1.0000   1.0000   1.0000
     1.0000   1.0000   1.0000   1.0000   1.0000   1.0000   1.0000   1.0000
     1.0000   1.0000   1.0000   1.0000   1.0000   1.0000   1.0000   1.0000
     1.0000   1.0000   1.0000   1.0000   1.0000   1.0000   1.0000   1.0000
     1.0000   1.0000   1.0000   1.0000   1.0000   1.0000   1.0000   1.0000
     1.0000   1.0000   1.0000   1.0000   1.0000   1.0000   1.0000   1.0000
     1.0000   1.0000   1.0000   1.0000   1.0000   1.0000   1.0000   1.0000
     1.0000   1.0000   1.0000   1.0000   1.0000   1.0000   1.0000   1.0000
     1.0000   1.0000   1.0000   1.0000   1.0000   1.0000   1.0000   1.0000
     1.0000   1.0000   1.0000   1.0000   1.0000   1.0000   1.0000   1.0000
     1.0000   1.0000   1.0000   1.0000   1.0000   1.0000   1.0000   1.0000
     1.0000   1.0000   1.0000   1.0000   1.0000   1.0000   1.0000   1.0000
     1.0000   1.0000   1.0000   1.0000   1.0000   1.0000   1.0000   1.0000
     1.0000   1.0000   1.0000   1.0000   1.0000   1.0000   1.0000   1.0000
     1.0000   1.0000   1.0000   1.0000   1.0000   1.0000   1.0000   1.0000
     1.0000   1.0000   1.0000   1.0000   1.0000   1.0000   1.0000   1.0000
     1.0000   1.0000   1.0000   1.0000   1.0000   1.0000   1.0000   1.0000
     1.0000   1.0000   1.0000   1.0000   1.0000   1.0000   1.0000   1.0000
     1.0000   1.0000   1.0000   1.0000   1.0000   1.0000   1.0000   1.0000
     1.0000   1.0000   1.0000   1.0000   1.0000   1.0000   1.0000   1.0000
     1.0000   1.0000   1.0000   1.0000   1.0000   1.0000   1.0000   1.0000
     1.0000   1.0000   1.0000   1.0000   1.0000   1.0000   1.0000   1.0000
     1.0000   1.0000   1.0000   1.0000   1.0000   1.0000   1.0000   1.0000
     1.0000   1.0000   1.0000   1.0000   1.0000   1.0000   1.0000   1.0000
     1.0000   1.0000   1.0000   1.0000   1.0000   1.0000   1.0000   1.0000
     1.0000   1.0000   1.0000   1.0000   1.0000   1.0000   1.0000   1.0000
     1.0000   1.0000   1.0000   1.0000   1.0000   1.0000   1.0000   1.0000
     1.0000   1.0000   1.0000   1.0000   1.0000   1.0000   1.0000   1.0000
     1.0000   1.0000   1.0000   1.0000   1.0000   1.0000   1.0000   1.0000
     1.0000   1.0000   1.0000   1.0000   1.0000   1.0000   1.0000   1.0000
     1.0000   1.0000   1.0000   1.0000   1.0000   1.0000   1.0000   1.0000
     1.0000   1.0000   1.0000   1.0000   1.0000   1.0000   1.0000   1.0000
     1.0000   1.0000   1.0000   1.0000   1.0000   1.0000   1.0000   1.0000
     1.0000   1.0000   1.0000   1.0000   1.0000   1.0000   1.0000   1.0000
     1.0000   1.0000   1.0000   1.0000   1.0000   1.0000   1.0000   1.0000
     1.0000   1.0000   1.0000   1.0000   1.0000   1.0000   1.0000   1.0000
     1.0000   1.0000   1.0000   1.0000   1.0000   1.0000   1.0000   1.0000
     1.0000   1.0000   1.0000   1.0000   1.0000   1.0000   1.0000   1.0000
     1.0000   1.0000   1.0000   1.0000   1.0000   1.0000   1.0000   1.0000
     1.0000   1.0000   1.0000   1.0000   1.0000   1.0000   1.0000   1.0000
     1.0000   1.0000   1.0000   1.0000   1.0000   1.0000   1.0000   1.0000
     1.0000   1.0000   1.0000   1.0000   1.0000   1.0000   1.0000   1.0000
     1.0000   1.0000   1.0000   1.0000   1.0000   1.0000   1.0000   1.0000
     1.0000   1.0000   1.0000   1.0000   1.0000   1.0000   1.0000   1.0000
     1.0000   1.0000   1.0000   1.0000   1.0000   1.0000   1.0000   1.0000
     1.0000   1.0000   1.0000   1.0000   1.0000   1.0000   1.0000   1.0000
     1.0000   1.0000   1.0000   1.0000   1.0000   1.0000   1.0000   1.0000
     1.0000   1.0000   1.0000   1.0000   1.0000   1.0000   1.0000   1.0000
     1.0000   1.0000   1.0000   1.0000   1.0000   1.0000   1.0000   1.0000
     1.0000   1.0000   1.0000   1.0000   1.0000   1.0000   1.0000   1.0000
     1.0000   1.0000   1.0000   1.0000   1.0000   1.0000   1.0000   1.0000
     1.0000   1.0000   1.0000   1.0000   1.0000   1.0000   1.0000   1.0000
     1.0000   1.0000   1.0000   1.0000   1.0000   1.0000   1.0000   1.0000
     1.0000   1.0000   1.0000   1.0000   1.0000   1.0000   1.0000   1.0000
     1.0000   1.0000   1.0000   1.0000   1.0000   1.0000   1.0000   1.0000
     1.0000   1.0000   1.0000   1.0000   1.0000   1.0000   1.0000   1.0000
     1.0000   1.0000   1.0000   1.0000   1.0000   1.0000   1.0000   1.0000
     1.0000   1.0000   1.0000   1.0000   1.0000   1.0000   1.0000   1.0000
     1.0000   1.0000   1.0000   1.0000   1.0000   1.0000   1.0000   1.0000
     1.0000   1.0000   1.0000   1.0000   1.0000   1.0000   1.0000   1.0000
     1.0000   1.0000   1.0000   1.0000   1.0000   1.0000   1.0000   1.0000
     1.0000   1.0000   1.0000   1.0000   1.0000   1.0000   1.0000   1.0000
     1.0000   1.0000   1.0000   1.0000   1.0000   1.0000   1.0000   1.0000
     1.0000   1.0000   1.0000   1.0000   1.0000   1.0000   1.0000   1.0000
     1.0000   1.0000   1.0000   1.0000   1.0000   1.0000   1.0000   1.0000
     0.9999   0.9999   0.9999   0.9998   0.9998   0.9998   0.9998   0.9996
     0.9995   0.9995   0.9987   0.9981   0.9970   0.9962   0.9957   0.9947
     0.9939   0.9933   0.9925   0.9918   0.9907   0.9903   0.9891   0.9876
     0.9834   0.9826   0.9822   0.9776   0.9739   0.9691   0.9667   0.9649
     0.9497   0.9060   0.8771   0.8672   0.8485   0.8455   0.8282   0.8204
     0.8132   0.8048   0.8045   0.8007   0.7951   0.7924   0.7846   0.7791
     0.7743   0.7571   0.7566   0.7357   0.7297   0.7115   0.6972   0.6875
     0.6847   0.6484   0.5785   0.5437   0.5373   0.5053   0.4085   0.3857
     0.3741   0.3550   0.3542   0.3424   0.3326   0.3213   0.2720   0.2353
     0.1735   0.1710   0.1516   0.1487   0.1352   0.1314   0.1173   0.1116
     0.1044   0.0948   0.0919   0.0780   0.0700   0.0672   0.0635   0.0564
     0.0548   0.0344   0.0334   0.0059   0.0053   0.0048   0.0013   0.0009
     0.0008   0.0006   0.0005   0.0005   0.0004   0.0003   0.0003   0.0003
     0.0002   0.0001   0.0001   0.0001   0.0000   0.0000   0.0000   0.0000
     0.0000   0.0000   0.0000   0.0000   0.0000   0.0000   0.0000   0.0000
     0.0000   0.0000   0.0000   0.0000   0.0000   0.0000   0.0000   0.0000
     0.0000   0.0000   0.0000   0.0000   0.0000   0.0000   0.0000   0.0000
     0.0000   0.0000   0.0000   0.0000   0.0000   0.0000   0.0000   0.0000
     0.0000   0.0000   0.0000   0.0000   0.0000   0.0000   0.0000   0.0000
     0.0000   0.0000   0.0000   0.0000   0.0000   0.0000   0.0000   0.0000
     0.0000   0.0000   0.0000   0.0000   0.0000   0.0000   0.0000   0.0000
     0.0000   0.0000   0.0000   0.0000   0.0000   0.0000   0.0000   0.0000
     0.0000   0.0000   0.0000   0.0000   0.0000   0.0000   0.0000   0.0000
     0.0000   0.0000   0.0000   0.0000   0.0000   0.0000   0.0000   0.0000
     0.0000   0.0000   0.0000   0.0000   0.0000   0.0000   0.0000   0.0000
     0.0000   0.0000   0.0000   0.0000   0.0000   0.0000   0.0000   0.0000
     0.0000   0.0000   0.0000   0.0000   0.0000   0.0000   0.0000   0.0000
     0.0000   0.0000   0.0000   0.0000   0.0000   0.0000   0.0000   0.0000
     0.0000   0.0000   0.0000   0.0000   0.0000   0.0000   0.0000   0.0000
     0.0000   0.0000   0.0000   0.0000   0.0000   0.0000   0.0000   0.0000
     0.0000   0.0000   0.0000   0.0000   0.0000   0.0000   0.0000   0.0000

          k = 0.0000 0.2887 0.2850 (100631 PWs)   bands (ev):

   -69.1493 -69.1395 -69.0695 -69.0554 -69.0343 -69.0339 -69.0324 -69.0318
   -69.0190 -69.0185 -69.0185 -69.0181 -69.0163 -69.0160 -69.0131 -69.0127
   -69.0127 -69.0118 -69.0091 -69.0071 -69.0070 -69.0068 -69.0067 -69.0067
   -69.0065 -69.0064 -69.0062 -69.0047 -69.0044 -69.0043 -69.0041 -69.0014
   -68.9951 -68.9951 -68.9774 -68.9771 -68.6456 -68.6421 -68.6413 -68.6397
   -68.6393 -68.6365 -68.6365 -68.6360 -68.6360 -68.6345 -68.6344 -68.6341
   -68.6341 -68.6333 -68.6331 -68.6327 -68.6326 -68.6325 -68.6324 -68.6320
   -68.6319 -68.6319 -68.6317 -68.6314 -68.6314 -68.6311 -68.6311 -68.6308
   -68.6307 -68.6302 -68.6292 -68.6292 -68.6287 -68.6287 -68.6236 -68.6236
   -35.4825 -35.4063 -35.3481 -35.3044 -35.3036 -35.3034 -35.3028 -35.3002
   -35.2990 -35.2961 -35.2957 -35.2954 -35.2951 -35.2886 -35.2885 -35.2549
   -35.2401 -35.2374 -35.2371 -35.2362 -35.2358 -35.2354 -35.2349 -35.2313
   -35.2299 -35.2285 -35.2281 -35.2275 -35.2265 -35.2262 -35.2258 -35.2251
   -35.2246 -35.2245 -35.2194 -35.2184 -35.2176 -35.2172 -35.2167 -35.1877
   -35.1833 -35.1816 -35.1800 -35.1779 -35.1767 -35.1739 -35.1730 -35.1725
   -35.1720 -35.1719 -35.1714 -35.1709 -35.1706 -35.1704 -35.1692 -35.1691
   -35.1679 -35.1646 -35.1636 -35.1631 -35.1610 -35.1595 -35.1593 -35.1585
   -35.1579 -35.1570 -35.1563 -35.1554 -35.1544 -35.1537 -35.1374 -35.1358
   -35.1074 -35.1013 -35.0871 -35.0697 -35.0505 -35.0459 -35.0447 -35.0426
   -35.0374 -35.0364 -35.0313 -35.0307 -35.0289 -35.0274 -35.0255 -35.0242
   -35.0216 -35.0203 -35.0187 -35.0178 -35.0175 -35.0153 -35.0138 -35.0132
   -35.0128 -35.0125 -35.0113 -35.0110 -35.0091 -35.0078 -35.0051 -35.0022
   -34.9984 -34.9979 -34.9932 -34.9862 -34.8413 -34.8383 -34.8333 -34.8330
   -34.8310 -34.8305 -34.8273 -34.8270 -34.8262 -34.8260 -34.8257 -34.8249
   -34.8235 -34.8232 -34.8228 -34.8224 -34.8223 -34.8220 -34.8217 -34.8213
   -34.8207 -34.8206 -34.8203 -34.8198 -34.8196 -34.8191 -34.8184 -34.8181
   -34.8179 -34.8168 -34.8153 -34.8151 -34.8139 -34.8132 -34.8110 -34.8068
   -34.7666 -34.7664 -34.7659 -34.7646 -34.7634 -34.7630 -34.7625 -34.7616
   -34.7612 -34.7606 -34.7600 -34.7593 -34.7587 -34.7584 -34.7580 -34.7577
   -34.7572 -34.7568 -34.7565 -34.7563 -34.7561 -34.7556 -34.7553 -34.7552
   -34.7549 -34.7546 -34.7544 -34.7543 -34.7541 -34.7526 -34.7512 -34.7488
   -34.7470 -34.7467 -34.7405 -34.7383 -34.7086 -34.7005 -34.6998 -34.6984
   -34.6962 -34.6956 -34.6942 -34.6939 -34.6914 -34.6910 -34.6905 -34.6897
   -34.6893 -34.6871 -34.6840 -34.6832 -34.6824 -34.6810 -34.6802 -34.6801
   -34.6795 -34.6792 -34.6783 -34.6752 -34.6750 -34.6750 -34.6730 -34.6728
   -34.6727 -34.6724 -34.6718 -34.6716 -34.6711 -34.6703 -34.6634 -34.6630
     3.4104   3.9375   3.9929   4.2107   4.2470   4.4659   4.6519   4.6986
     4.7036   4.7097   4.8537   4.8882   5.0765   5.0945   5.2114   5.2428
     5.2992   5.3057   5.3582   5.3714   5.4306   5.4545   5.5435   5.5625
     5.5847   5.5895   5.6001   5.6342   5.6430   5.7085   5.7886   5.8815
     5.8901   5.9790   6.0058   6.2547   8.7109   9.8206   9.8777   9.9091
     9.9558  10.0435  10.1095  10.1583  10.2148  10.2248  10.2258  10.2689
    10.2883  10.3465  10.4480  10.5594  10.6825  10.7445  10.7489  10.7533
    10.7865  10.8164  10.8444  10.8513  10.8668  10.9077  11.0174  11.0794
    11.1006  11.1466  11.2139  11.2656  11.3328  11.3984  11.4445  11.4668
    11.5085  11.5272  11.5614  11.6052  11.6462  11.6934  11.7855  11.7995
    11.8650  11.8699  11.8774  11.9301  12.0987  12.2147  12.2268  12.2529
    12.2633  12.2736  12.2799  12.3167  12.3320  12.3532  12.3795  12.4040
    12.4240  12.4295  12.4457  12.4599  12.4740  12.4801  12.5283  12.5495
    12.5831  12.5918  12.6424  12.6476  12.6835  12.6902  12.7261  12.7364
    12.8084  12.8299  12.8486  12.8552  12.8680  12.8957  12.9046  12.9318
    12.9945  13.0144  13.0231  13.0914  13.1263  13.1454  13.1537  13.1929
    13.2347  13.2390  13.2482  13.2671  13.2739  13.2898  13.3235  13.3499
    13.3584  13.3804  13.4178  13.4281  13.4313  13.6498  13.6986  13.7092
    13.7516  14.5041  14.5401  14.5911  14.6014  14.6081  14.6328  14.6433
    14.6550  14.6924  14.6994  14.7036  14.7097  14.7351  14.7415  14.7491
    14.7807  14.7843  14.7886  14.7938  14.7985  14.8111  14.8211  14.8296
    14.8348  14.8499  14.8582  14.8798  14.8839  14.8887  14.9084  14.9197
    14.9238  14.9289  14.9340  14.9381  14.9437  14.9460  14.9642  14.9813
    15.0212  15.0463  15.0496  15.0566  15.0609  15.0842  15.0888  15.0967
    15.1139  15.1225  15.1791  15.2040  15.2068  15.2079  15.2186  15.2354
    15.2414  15.2501  15.2967  15.3144  15.3221  15.3332  15.3438  15.3553
    15.3688  15.3745  15.3863  15.4110  15.4333  15.4443  15.4828  15.5054
    15.5112  15.5212  15.5524  15.6152  15.6209  15.6464  15.6625  15.6661
    15.7158  15.7728  15.8301  15.8752  15.9298  15.9383  15.9697  15.9792
    15.9967  16.0050  16.0086  16.0135  16.0196  16.0323  16.0451  16.0471
    16.0546  16.0601  16.0703  16.0751  16.0775  16.0822  16.1114  16.1288
    16.1764  16.1922  16.1996  16.2047  16.2206  16.2273  16.2450  16.3124
    16.3205  16.3308  16.3369  16.3492  16.3517  16.3650  16.3682  16.3987
    16.4586  16.4672  16.4743  16.4793  16.5451  16.5500  16.5662  16.5822
    16.5912  16.6443  16.6665  16.6800  16.6843  16.6893  16.6954  16.7101
    16.7211  16.7247  16.7302  16.7381  16.7396  16.7463  16.7539  16.7601
    16.8037  16.8178  16.8258  16.8386  16.8440  16.8609  16.8700  16.8995
    16.9291  16.9420  16.9460  16.9638  16.9754  16.9867  16.9948  16.9978
    17.0027  17.0094  17.0176  17.0226  17.0305  17.0358  17.0407  17.0456
    17.0559  17.0699  17.0757  17.0807  17.0827  17.0895  17.0936  17.1009
    17.1095  17.1128  17.1212  17.1610  17.2068  17.2255  17.2288  17.2353
    17.2412  17.2482  17.2537  17.2606  17.2723  17.2794  17.2857  17.3002
    17.3414  17.3652  17.3906  17.4060  17.4187  17.4309  17.4392  17.4432
    17.4701  17.4762  17.4836  17.4906  17.5020  17.5082  17.5111  17.5180
    17.5196  17.5600  17.6412  17.6499  17.6797  17.6825  17.7114  17.7632
    17.8057  17.8216  17.8688  17.8813  17.8911  17.8945  17.9137  17.9208
    17.9380  17.9608  17.9648  17.9757  17.9808  17.9853  17.9915  18.0030
    18.0114  18.0194  18.0252  18.0267  18.0279  18.0332  18.0362  18.0418
    18.0438  18.0473  18.0507  18.0554  18.0594  18.0721  18.0777  18.0843
    18.0893  18.0928  18.0998  18.1036  18.1067  18.1195  18.1220  18.1612
    18.1678  18.1781  18.1801  18.1860  18.1918  18.1936  18.1968  18.2017
    18.2045  18.2220  18.2364  18.2442  18.2628  18.2641  18.2706  18.2963
    18.3007  18.3240  18.3286  18.3440  18.3700  18.3890  18.3924  18.4011
    18.4038  18.4082  18.4122  18.4351  18.4371  18.4496  18.4693  18.5120
    18.5185  18.5732  18.6172  18.7813  18.8664  18.9202  18.9944  19.0426
    19.0565  19.0749  19.0948  19.1438  19.1643  19.2331  19.2555  19.2620
    19.2683  19.2757  19.2959  19.2977  19.3132  19.3356  19.4557  19.4756
    19.4959  19.5364  19.5446  19.5908  19.5987  19.6222  19.6468  19.6831
    19.6926  19.6959  19.7128  19.7217  19.7400  19.8069  19.8221  19.8262
    19.8297  19.9258  19.9368  19.9704  20.0018  20.0372  20.0746  20.0839
    20.1252  20.1299  20.1590  20.1694  20.1859  20.2311  20.3010  20.3942
    20.4149  20.4222  20.4433  20.4948  20.5095  20.5120  20.5784  20.5995
    20.6255  20.6369  20.7432  20.7568  20.7796  20.8026  21.0583  21.1612
    21.3527  21.4169  21.4581  21.4685  21.4848  21.8420  21.9045  21.9506

     occupation numbers 
     1.0000   1.0000   1.0000   1.0000   1.0000   1.0000   1.0000   1.0000
     1.0000   1.0000   1.0000   1.0000   1.0000   1.0000   1.0000   1.0000
     1.0000   1.0000   1.0000   1.0000   1.0000   1.0000   1.0000   1.0000
     1.0000   1.0000   1.0000   1.0000   1.0000   1.0000   1.0000   1.0000
     1.0000   1.0000   1.0000   1.0000   1.0000   1.0000   1.0000   1.0000
     1.0000   1.0000   1.0000   1.0000   1.0000   1.0000   1.0000   1.0000
     1.0000   1.0000   1.0000   1.0000   1.0000   1.0000   1.0000   1.0000
     1.0000   1.0000   1.0000   1.0000   1.0000   1.0000   1.0000   1.0000
     1.0000   1.0000   1.0000   1.0000   1.0000   1.0000   1.0000   1.0000
     1.0000   1.0000   1.0000   1.0000   1.0000   1.0000   1.0000   1.0000
     1.0000   1.0000   1.0000   1.0000   1.0000   1.0000   1.0000   1.0000
     1.0000   1.0000   1.0000   1.0000   1.0000   1.0000   1.0000   1.0000
     1.0000   1.0000   1.0000   1.0000   1.0000   1.0000   1.0000   1.0000
     1.0000   1.0000   1.0000   1.0000   1.0000   1.0000   1.0000   1.0000
     1.0000   1.0000   1.0000   1.0000   1.0000   1.0000   1.0000   1.0000
     1.0000   1.0000   1.0000   1.0000   1.0000   1.0000   1.0000   1.0000
     1.0000   1.0000   1.0000   1.0000   1.0000   1.0000   1.0000   1.0000
     1.0000   1.0000   1.0000   1.0000   1.0000   1.0000   1.0000   1.0000
     1.0000   1.0000   1.0000   1.0000   1.0000   1.0000   1.0000   1.0000
     1.0000   1.0000   1.0000   1.0000   1.0000   1.0000   1.0000   1.0000
     1.0000   1.0000   1.0000   1.0000   1.0000   1.0000   1.0000   1.0000
     1.0000   1.0000   1.0000   1.0000   1.0000   1.0000   1.0000   1.0000
     1.0000   1.0000   1.0000   1.0000   1.0000   1.0000   1.0000   1.0000
     1.0000   1.0000   1.0000   1.0000   1.0000   1.0000   1.0000   1.0000
     1.0000   1.0000   1.0000   1.0000   1.0000   1.0000   1.0000   1.0000
     1.0000   1.0000   1.0000   1.0000   1.0000   1.0000   1.0000   1.0000
     1.0000   1.0000   1.0000   1.0000   1.0000   1.0000   1.0000   1.0000
     1.0000   1.0000   1.0000   1.0000   1.0000   1.0000   1.0000   1.0000
     1.0000   1.0000   1.0000   1.0000   1.0000   1.0000   1.0000   1.0000
     1.0000   1.0000   1.0000   1.0000   1.0000   1.0000   1.0000   1.0000
     1.0000   1.0000   1.0000   1.0000   1.0000   1.0000   1.0000   1.0000
     1.0000   1.0000   1.0000   1.0000   1.0000   1.0000   1.0000   1.0000
     1.0000   1.0000   1.0000   1.0000   1.0000   1.0000   1.0000   1.0000
     1.0000   1.0000   1.0000   1.0000   1.0000   1.0000   1.0000   1.0000
     1.0000   1.0000   1.0000   1.0000   1.0000   1.0000   1.0000   1.0000
     1.0000   1.0000   1.0000   1.0000   1.0000   1.0000   1.0000   1.0000
     1.0000   1.0000   1.0000   1.0000   1.0000   1.0000   1.0000   1.0000
     1.0000   1.0000   1.0000   1.0000   1.0000   1.0000   1.0000   1.0000
     1.0000   1.0000   1.0000   1.0000   1.0000   1.0000   1.0000   1.0000
     1.0000   1.0000   1.0000   1.0000   1.0000   1.0000   1.0000   1.0000
     1.0000   1.0000   1.0000   1.0000   1.0000   1.0000   1.0000   1.0000
     1.0000   1.0000   1.0000   1.0000   1.0000   1.0000   1.0000   1.0000
     1.0000   1.0000   1.0000   1.0000   1.0000   1.0000   1.0000   1.0000
     1.0000   1.0000   1.0000   1.0000   1.0000   1.0000   1.0000   1.0000
     1.0000   1.0000   1.0000   1.0000   1.0000   1.0000   1.0000   1.0000
     1.0000   1.0000   1.0000   1.0000   1.0000   1.0000   1.0000   1.0000
     1.0000   1.0000   1.0000   1.0000   1.0000   1.0000   1.0000   1.0000
     1.0000   1.0000   1.0000   1.0000   1.0000   1.0000   1.0000   1.0000
     1.0000   1.0000   1.0000   1.0000   1.0000   1.0000   1.0000   1.0000
     1.0000   1.0000   1.0000   1.0000   1.0000   1.0000   1.0000   1.0000
     1.0000   1.0000   1.0000   1.0000   1.0000   1.0000   1.0000   1.0000
     1.0000   1.0000   1.0000   1.0000   1.0000   1.0000   1.0000   1.0000
     1.0000   1.0000   1.0000   1.0000   1.0000   1.0000   1.0000   1.0000
     1.0000   1.0000   1.0000   1.0000   1.0000   1.0000   1.0000   1.0000
     1.0000   1.0000   1.0000   1.0000   1.0000   1.0000   1.0000   1.0000
     1.0000   1.0000   1.0000   1.0000   1.0000   1.0000   1.0000   1.0000
     1.0000   1.0000   1.0000   1.0000   1.0000   1.0000   1.0000   1.0000
     1.0000   1.0000   1.0000   1.0000   1.0000   1.0000   1.0000   1.0000
     1.0000   1.0000   1.0000   1.0000   1.0000   1.0000   1.0000   1.0000
     1.0000   1.0000   1.0000   1.0000   1.0000   1.0000   1.0000   1.0000
     1.0000   1.0000   1.0000   1.0000   1.0000   1.0000   1.0000   1.0000
     1.0000   1.0000   1.0000   1.0000   1.0000   1.0000   1.0000   1.0000
     1.0000   1.0000   1.0000   1.0000   1.0000   1.0000   1.0000   1.0000
     1.0000   1.0000   1.0000   1.0000   1.0000   1.0000   1.0000   1.0000
     1.0000   1.0000   1.0000   1.0000   1.0000   1.0000   1.0000   1.0000
     1.0000   1.0000   1.0000   1.0000   1.0000   1.0000   1.0000   1.0000
     1.0000   1.0000   1.0000   1.0000   1.0000   1.0000   1.0000   1.0000
     1.0000   1.0000   1.0000   1.0000   1.0000   1.0000   1.0000   1.0000
     1.0000   1.0000   1.0000   1.0000   1.0000   1.0000   1.0000   1.0000
     1.0000   0.9999   0.9999   0.9999   0.9997   0.9997   0.9996   0.9995
     0.9994   0.9984   0.9977   0.9972   0.9970   0.9967   0.9964   0.9955
     0.9946   0.9944   0.9939   0.9931   0.9930   0.9923   0.9914   0.9906
     0.9831   0.9798   0.9777   0.9739   0.9722   0.9660   0.9623   0.9479
     0.9294   0.9199   0.9167   0.9016   0.8908   0.8793   0.8707   0.8673
     0.8619   0.8540   0.8440   0.8377   0.8274   0.8203   0.8135   0.8067
     0.7917   0.7701   0.7609   0.7527   0.7494   0.7382   0.7312   0.7185
     0.7032   0.6972   0.6819   0.6049   0.5111   0.4723   0.4656   0.4521
     0.4400   0.4257   0.4145   0.4007   0.3774   0.3633   0.3512   0.3237
     0.2509   0.2132   0.1769   0.1569   0.1415   0.1278   0.1190   0.1150
     0.0900   0.0850   0.0792   0.0739   0.0660   0.0620   0.0601   0.0560
     0.0551   0.0353   0.0129   0.0114   0.0076   0.0073   0.0047   0.0021
     0.0010   0.0008   0.0003   0.0003   0.0002   0.0002   0.0001   0.0001
     0.0001   0.0001   0.0000   0.0000   0.0000   0.0000   0.0000   0.0000
     0.0000   0.0000   0.0000   0.0000   0.0000   0.0000   0.0000   0.0000
     0.0000   0.0000   0.0000   0.0000   0.0000   0.0000   0.0000   0.0000
     0.0000   0.0000   0.0000   0.0000   0.0000   0.0000   0.0000   0.0000
     0.0000   0.0000   0.0000   0.0000   0.0000   0.0000   0.0000   0.0000
     0.0000   0.0000   0.0000   0.0000   0.0000   0.0000   0.0000   0.0000
     0.0000   0.0000   0.0000   0.0000   0.0000   0.0000   0.0000   0.0000
     0.0000   0.0000   0.0000   0.0000   0.0000   0.0000   0.0000   0.0000
     0.0000   0.0000   0.0000   0.0000   0.0000   0.0000   0.0000   0.0000
     0.0000   0.0000   0.0000   0.0000   0.0000   0.0000   0.0000   0.0000
     0.0000   0.0000   0.0000   0.0000   0.0000   0.0000   0.0000   0.0000
     0.0000   0.0000   0.0000   0.0000   0.0000   0.0000   0.0000   0.0000
     0.0000   0.0000   0.0000   0.0000   0.0000   0.0000   0.0000   0.0000
     0.0000   0.0000   0.0000   0.0000   0.0000   0.0000   0.0000   0.0000
     0.0000   0.0000   0.0000   0.0000   0.0000   0.0000   0.0000   0.0000
     0.0000   0.0000   0.0000   0.0000   0.0000   0.0000   0.0000   0.0000
     0.0000   0.0000   0.0000   0.0000   0.0000   0.0000   0.0000   0.0000
     0.0000   0.0000   0.0000   0.0000   0.0000   0.0000   0.0000   0.0000

          k = 0.0000 0.2887-0.5700 (100576 PWs)   bands (ev):

   -69.1493 -69.1395 -69.0695 -69.0554 -69.0343 -69.0339 -69.0324 -69.0318
   -69.0190 -69.0185 -69.0185 -69.0181 -69.0163 -69.0160 -69.0131 -69.0127
   -69.0127 -69.0118 -69.0091 -69.0071 -69.0070 -69.0068 -69.0067 -69.0067
   -69.0065 -69.0064 -69.0062 -69.0047 -69.0044 -69.0043 -69.0041 -69.0014
   -68.9951 -68.9951 -68.9774 -68.9771 -68.6456 -68.6421 -68.6413 -68.6397
   -68.6393 -68.6365 -68.6365 -68.6360 -68.6360 -68.6345 -68.6344 -68.6341
   -68.6341 -68.6333 -68.6331 -68.6327 -68.6326 -68.6325 -68.6324 -68.6320
   -68.6319 -68.6319 -68.6317 -68.6314 -68.6314 -68.6311 -68.6311 -68.6308
   -68.6307 -68.6302 -68.6292 -68.6292 -68.6287 -68.6287 -68.6236 -68.6236
   -35.4825 -35.4063 -35.3481 -35.3042 -35.3037 -35.3034 -35.3028 -35.3002
   -35.2989 -35.2962 -35.2956 -35.2953 -35.2951 -35.2886 -35.2885 -35.2548
   -35.2402 -35.2377 -35.2372 -35.2361 -35.2355 -35.2351 -35.2348 -35.2314
   -35.2297 -35.2284 -35.2279 -35.2277 -35.2269 -35.2261 -35.2256 -35.2254
   -35.2246 -35.2243 -35.2197 -35.2182 -35.2177 -35.2172 -35.2167 -35.1877
   -35.1835 -35.1814 -35.1803 -35.1775 -35.1769 -35.1738 -35.1728 -35.1720
   -35.1717 -35.1716 -35.1712 -35.1711 -35.1708 -35.1703 -35.1698 -35.1694
   -35.1677 -35.1649 -35.1635 -35.1632 -35.1609 -35.1595 -35.1593 -35.1583
   -35.1575 -35.1572 -35.1564 -35.1563 -35.1541 -35.1534 -35.1374 -35.1357
   -35.1074 -35.1014 -35.0871 -35.0699 -35.0505 -35.0469 -35.0450 -35.0427
   -35.0373 -35.0359 -35.0311 -35.0310 -35.0281 -35.0262 -35.0262 -35.0249
   -35.0218 -35.0200 -35.0185 -35.0178 -35.0165 -35.0159 -35.0130 -35.0129
   -35.0122 -35.0116 -35.0109 -35.0107 -35.0081 -35.0068 -35.0064 -35.0038
   -34.9993 -34.9992 -34.9929 -34.9865 -34.8420 -34.8377 -34.8345 -34.8334
   -34.8314 -34.8309 -34.8274 -34.8267 -34.8262 -34.8259 -34.8249 -34.8248
   -34.8236 -34.8231 -34.8228 -34.8226 -34.8222 -34.8216 -34.8213 -34.8210
   -34.8209 -34.8202 -34.8200 -34.8197 -34.8195 -34.8188 -34.8181 -34.8172
   -34.8166 -34.8161 -34.8158 -34.8155 -34.8142 -34.8126 -34.8113 -34.8106
   -34.7663 -34.7651 -34.7642 -34.7630 -34.7626 -34.7619 -34.7612 -34.7603
   -34.7601 -34.7600 -34.7599 -34.7593 -34.7592 -34.7589 -34.7587 -34.7584
   -34.7581 -34.7576 -34.7575 -34.7573 -34.7568 -34.7567 -34.7563 -34.7562
   -34.7561 -34.7557 -34.7556 -34.7554 -34.7541 -34.7522 -34.7506 -34.7480
   -34.7459 -34.7457 -34.7409 -34.7379 -34.7087 -34.7006 -34.6997 -34.6985
   -34.6962 -34.6956 -34.6943 -34.6939 -34.6913 -34.6911 -34.6904 -34.6897
   -34.6893 -34.6871 -34.6840 -34.6832 -34.6825 -34.6809 -34.6804 -34.6798
   -34.6797 -34.6793 -34.6782 -34.6751 -34.6750 -34.6749 -34.6730 -34.6728
   -34.6727 -34.6724 -34.6716 -34.6716 -34.6711 -34.6702 -34.6634 -34.6629
     3.5973   3.6493   4.1396   4.1857   4.3701   4.4213   4.4278   4.4290
     4.8181   4.8545   4.8600   4.8611   5.0140   5.0317   5.1611   5.4002
     5.4182   5.4222   5.4239   5.4671   5.4916   5.5188   5.5218   5.5539
     5.5563   5.5594   5.5705   5.5762   5.5764   5.5832   5.8730   5.8807
     5.9216   5.9328   6.0253   6.2971   8.7033   9.8364   9.8761   9.9773
     9.9863   9.9878  10.0003  10.0265  10.0369  10.0390  10.0484  10.0523
    10.0595  10.3384  10.5818  10.5994  10.6273  10.6736  10.7198  10.7420
    10.7727  10.7765  10.7781  10.8132  10.8159  10.8244  10.9804  11.1174
    11.2231  11.2259  11.2382  11.3787  11.5126  11.5278  11.5463  11.5477
    11.5943  11.5966  11.6451  11.6604  11.6781  11.7957  11.8826  12.0774
    12.0945  12.1222  12.1295  12.1681  12.1845  12.2062  12.2064  12.2419
    12.3000  12.3175  12.3369  12.3516  12.3886  12.4314  12.4404  12.4431
    12.4768  12.5254  12.5458  12.5840  12.6375  12.6464  12.6505  12.6566
    12.6637  12.6668  12.6879  12.6916  12.7002  12.7092  12.7100  12.7150
    12.7433  12.7592  12.7608  12.7820  12.8027  12.8168  12.8205  12.8457
    12.8518  12.8545  12.8585  12.8710  12.8752  13.0131  13.0259  13.0714
    13.0739  13.0801  13.0836  13.1341  13.1751  13.1782  13.2195  13.2315
    13.2773  13.2782  13.5390  13.5397  13.5565  13.5572  13.5637  13.5639
    13.6381  14.5293  14.5897  14.6093  14.6306  14.6575  14.6762  14.6841
    14.6860  14.6933  14.6993  14.7251  14.7328  14.7334  14.7381  14.7396
    14.7430  14.7506  14.7530  14.7557  14.7811  14.7946  14.8048  14.8183
    14.8387  14.8768  14.8904  14.8967  14.9066  14.9288  14.9321  14.9411
    14.9453  14.9617  14.9685  14.9735  14.9838  14.9899  14.9901  14.9919
    15.0240  15.0242  15.0449  15.0484  15.0548  15.0573  15.0586  15.0628
    15.0980  15.1129  15.1131  15.1189  15.1328  15.1477  15.1994  15.2549
    15.2611  15.2701  15.2708  15.2793  15.2799  15.3293  15.3350  15.3386
    15.3527  15.3556  15.3774  15.4042  15.4105  15.4129  15.4192  15.4695
    15.4894  15.5038  15.5157  15.5238  15.7348  15.7462  15.7685  15.7771
    15.7873  15.7873  15.7907  15.7932  15.8392  15.8445  15.9279  15.9403
    15.9877  16.0024  16.0165  16.0540  16.0640  16.0706  16.0714  16.0755
    16.0801  16.0833  16.0847  16.0957  16.1245  16.1291  16.2020  16.2135
    16.2140  16.2419  16.2442  16.2487  16.2527  16.2559  16.2902  16.3386
    16.3587  16.3742  16.3743  16.3765  16.3801  16.3862  16.4309  16.4344
    16.4448  16.4496  16.4559  16.5519  16.5584  16.5711  16.5770  16.5825
    16.5887  16.6562  16.6598  16.6854  16.6923  16.6967  16.7005  16.7050
    16.7093  16.7122  16.7253  16.7283  16.7341  16.7713  16.7815  16.7849
    16.7906  16.8024  16.8159  16.8335  16.8346  16.8455  16.8492  16.8593
    16.8954  16.8994  16.9185  16.9334  16.9439  16.9580  16.9597  16.9625
    16.9702  16.9707  16.9757  16.9792  16.9878  16.9985  17.0085  17.0178
    17.0304  17.0338  17.0783  17.0929  17.1053  17.1253  17.1325  17.1387
    17.1452  17.1472  17.1501  17.1604  17.1702  17.1736  17.1751  17.1805
    17.1845  17.1964  17.2000  17.2121  17.2340  17.2387  17.2537  17.2601
    17.3165  17.3555  17.3610  17.4046  17.4070  17.4175  17.4191  17.4432
    17.4740  17.4865  17.4895  17.5072  17.5175  17.5195  17.5579  17.5636
    17.5653  17.5727  17.5779  17.5834  17.6174  17.6292  17.7682  17.7855
    17.7916  17.8013  17.8986  17.9042  17.9169  17.9299  17.9416  17.9426
    17.9489  17.9533  17.9579  17.9580  17.9688  17.9896  18.0024  18.0052
    18.0079  18.0190  18.0206  18.0240  18.0249  18.0294  18.0349  18.0394
    18.0432  18.0474  18.0520  18.0530  18.0593  18.0654  18.0684  18.0869
    18.0927  18.0999  18.1005  18.1055  18.1079  18.1270  18.1299  18.1890
    18.1901  18.1932  18.1987  18.2004  18.2005  18.2056  18.2084  18.2149
    18.2230  18.2319  18.2453  18.2634  18.2683  18.2729  18.2859  18.3123
    18.3209  18.3319  18.4119  18.4161  18.4219  18.4248  18.4273  18.4309
    18.4367  18.4369  18.4453  18.4481  18.4673  18.4776  18.4791  18.4847
    18.6029  18.6105  18.6192  18.6544  18.8818  18.8871  18.9690  19.0531
    19.0704  19.0744  19.0781  19.0860  19.0911  19.1302  19.1812  19.2228
    19.2299  19.2923  19.2972  19.3190  19.3226  19.3254  19.4804  19.4828
    19.4908  19.4911  19.5139  19.5546  19.5985  19.6049  19.6137  19.6159
    19.6332  19.6376  19.6848  19.8044  19.8455  19.8577  19.8655  19.8665
    19.9129  19.9332  19.9340  19.9590  19.9717  19.9786  19.9798  20.1269
    20.1749  20.1888  20.2421  20.2518  20.2580  20.2635  20.3029  20.3168
    20.3352  20.3404  20.3491  20.3680  20.3702  20.3750  20.3843  20.4062
    20.4369  20.4566  20.6722  20.7011  20.9595  20.9919  21.0243  21.0616
    21.2126  21.2869  21.3080  21.3269  21.5272  21.7045  21.9920  22.3179

     occupation numbers 
     1.0000   1.0000   1.0000   1.0000   1.0000   1.0000   1.0000   1.0000
     1.0000   1.0000   1.0000   1.0000   1.0000   1.0000   1.0000   1.0000
     1.0000   1.0000   1.0000   1.0000   1.0000   1.0000   1.0000   1.0000
     1.0000   1.0000   1.0000   1.0000   1.0000   1.0000   1.0000   1.0000
     1.0000   1.0000   1.0000   1.0000   1.0000   1.0000   1.0000   1.0000
     1.0000   1.0000   1.0000   1.0000   1.0000   1.0000   1.0000   1.0000
     1.0000   1.0000   1.0000   1.0000   1.0000   1.0000   1.0000   1.0000
     1.0000   1.0000   1.0000   1.0000   1.0000   1.0000   1.0000   1.0000
     1.0000   1.0000   1.0000   1.0000   1.0000   1.0000   1.0000   1.0000
     1.0000   1.0000   1.0000   1.0000   1.0000   1.0000   1.0000   1.0000
     1.0000   1.0000   1.0000   1.0000   1.0000   1.0000   1.0000   1.0000
     1.0000   1.0000   1.0000   1.0000   1.0000   1.0000   1.0000   1.0000
     1.0000   1.0000   1.0000   1.0000   1.0000   1.0000   1.0000   1.0000
     1.0000   1.0000   1.0000   1.0000   1.0000   1.0000   1.0000   1.0000
     1.0000   1.0000   1.0000   1.0000   1.0000   1.0000   1.0000   1.0000
     1.0000   1.0000   1.0000   1.0000   1.0000   1.0000   1.0000   1.0000
     1.0000   1.0000   1.0000   1.0000   1.0000   1.0000   1.0000   1.0000
     1.0000   1.0000   1.0000   1.0000   1.0000   1.0000   1.0000   1.0000
     1.0000   1.0000   1.0000   1.0000   1.0000   1.0000   1.0000   1.0000
     1.0000   1.0000   1.0000   1.0000   1.0000   1.0000   1.0000   1.0000
     1.0000   1.0000   1.0000   1.0000   1.0000   1.0000   1.0000   1.0000
     1.0000   1.0000   1.0000   1.0000   1.0000   1.0000   1.0000   1.0000
     1.0000   1.0000   1.0000   1.0000   1.0000   1.0000   1.0000   1.0000
     1.0000   1.0000   1.0000   1.0000   1.0000   1.0000   1.0000   1.0000
     1.0000   1.0000   1.0000   1.0000   1.0000   1.0000   1.0000   1.0000
     1.0000   1.0000   1.0000   1.0000   1.0000   1.0000   1.0000   1.0000
     1.0000   1.0000   1.0000   1.0000   1.0000   1.0000   1.0000   1.0000
     1.0000   1.0000   1.0000   1.0000   1.0000   1.0000   1.0000   1.0000
     1.0000   1.0000   1.0000   1.0000   1.0000   1.0000   1.0000   1.0000
     1.0000   1.0000   1.0000   1.0000   1.0000   1.0000   1.0000   1.0000
     1.0000   1.0000   1.0000   1.0000   1.0000   1.0000   1.0000   1.0000
     1.0000   1.0000   1.0000   1.0000   1.0000   1.0000   1.0000   1.0000
     1.0000   1.0000   1.0000   1.0000   1.0000   1.0000   1.0000   1.0000
     1.0000   1.0000   1.0000   1.0000   1.0000   1.0000   1.0000   1.0000
     1.0000   1.0000   1.0000   1.0000   1.0000   1.0000   1.0000   1.0000
     1.0000   1.0000   1.0000   1.0000   1.0000   1.0000   1.0000   1.0000
     1.0000   1.0000   1.0000   1.0000   1.0000   1.0000   1.0000   1.0000
     1.0000   1.0000   1.0000   1.0000   1.0000   1.0000   1.0000   1.0000
     1.0000   1.0000   1.0000   1.0000   1.0000   1.0000   1.0000   1.0000
     1.0000   1.0000   1.0000   1.0000   1.0000   1.0000   1.0000   1.0000
     1.0000   1.0000   1.0000   1.0000   1.0000   1.0000   1.0000   1.0000
     1.0000   1.0000   1.0000   1.0000   1.0000   1.0000   1.0000   1.0000
     1.0000   1.0000   1.0000   1.0000   1.0000   1.0000   1.0000   1.0000
     1.0000   1.0000   1.0000   1.0000   1.0000   1.0000   1.0000   1.0000
     1.0000   1.0000   1.0000   1.0000   1.0000   1.0000   1.0000   1.0000
     1.0000   1.0000   1.0000   1.0000   1.0000   1.0000   1.0000   1.0000
     1.0000   1.0000   1.0000   1.0000   1.0000   1.0000   1.0000   1.0000
     1.0000   1.0000   1.0000   1.0000   1.0000   1.0000   1.0000   1.0000
     1.0000   1.0000   1.0000   1.0000   1.0000   1.0000   1.0000   1.0000
     1.0000   1.0000   1.0000   1.0000   1.0000   1.0000   1.0000   1.0000
     1.0000   1.0000   1.0000   1.0000   1.0000   1.0000   1.0000   1.0000
     1.0000   1.0000   1.0000   1.0000   1.0000   1.0000   1.0000   1.0000
     1.0000   1.0000   1.0000   1.0000   1.0000   1.0000   1.0000   1.0000
     1.0000   1.0000   1.0000   1.0000   1.0000   1.0000   1.0000   1.0000
     1.0000   1.0000   1.0000   1.0000   1.0000   1.0000   1.0000   1.0000
     1.0000   1.0000   1.0000   1.0000   1.0000   1.0000   1.0000   1.0000
     1.0000   1.0000   1.0000   1.0000   1.0000   1.0000   1.0000   1.0000
     1.0000   1.0000   1.0000   1.0000   1.0000   1.0000   1.0000   1.0000
     1.0000   1.0000   1.0000   1.0000   1.0000   1.0000   1.0000   1.0000
     1.0000   1.0000   1.0000   1.0000   1.0000   1.0000   1.0000   1.0000
     1.0000   1.0000   1.0000   1.0000   1.0000   1.0000   1.0000   1.0000
     1.0000   1.0000   1.0000   1.0000   1.0000   1.0000   1.0000   1.0000
     1.0000   1.0000   1.0000   1.0000   1.0000   1.0000   1.0000   1.0000
     1.0000   1.0000   1.0000   1.0000   1.0000   1.0000   1.0000   1.0000
     1.0000   1.0000   1.0000   1.0000   1.0000   1.0000   1.0000   1.0000
     1.0000   1.0000   1.0000   1.0000   1.0000   1.0000   1.0000   1.0000
     1.0000   1.0000   1.0000   1.0000   1.0000   1.0000   1.0000   1.0000
     1.0000   1.0000   1.0000   1.0000   1.0000   1.0000   1.0000   1.0000
     1.0000   1.0000   1.0000   1.0000   1.0000   1.0000   1.0000   1.0000
     1.0000   1.0000   1.0000   0.9997   0.9997   0.9996   0.9995   0.9995
     0.9994   0.9981   0.9980   0.9969   0.9966   0.9963   0.9961   0.9958
     0.9955   0.9953   0.9943   0.9940   0.9935   0.9890   0.9874   0.9868
     0.9858   0.9834   0.9803   0.9755   0.9751   0.9717   0.9704   0.9667
     0.9501   0.9480   0.9366   0.9263   0.9184   0.9068   0.9053   0.9028
     0.8958   0.8953   0.8904   0.8870   0.8782   0.8666   0.8551   0.8437
     0.8277   0.8231   0.7567   0.7324   0.7106   0.6741   0.6606   0.6487
     0.6361   0.6322   0.6265   0.6061   0.5864   0.5795   0.5764   0.5653
     0.5572   0.5326   0.5253   0.5001   0.4548   0.4452   0.4146   0.4017
     0.2939   0.2282   0.2196   0.1586   0.1556   0.1429   0.1411   0.1150
     0.0868   0.0770   0.0748   0.0626   0.0562   0.0551   0.0362   0.0339
     0.0332   0.0305   0.0287   0.0268   0.0176   0.0151   0.0019   0.0014
     0.0013   0.0011   0.0002   0.0002   0.0001   0.0001   0.0001   0.0001
     0.0001   0.0001   0.0001   0.0001   0.0000   0.0000   0.0000   0.0000
     0.0000   0.0000   0.0000   0.0000   0.0000   0.0000   0.0000   0.0000
     0.0000   0.0000   0.0000   0.0000   0.0000   0.0000   0.0000   0.0000
     0.0000   0.0000   0.0000   0.0000   0.0000   0.0000   0.0000   0.0000
     0.0000   0.0000   0.0000   0.0000   0.0000   0.0000   0.0000   0.0000
     0.0000   0.0000   0.0000   0.0000   0.0000   0.0000   0.0000   0.0000
     0.0000   0.0000   0.0000   0.0000   0.0000   0.0000   0.0000   0.0000
     0.0000   0.0000   0.0000   0.0000   0.0000   0.0000   0.0000   0.0000
     0.0000   0.0000   0.0000   0.0000   0.0000   0.0000   0.0000   0.0000
     0.0000   0.0000   0.0000   0.0000   0.0000   0.0000   0.0000   0.0000
     0.0000   0.0000   0.0000   0.0000   0.0000   0.0000   0.0000   0.0000
     0.0000   0.0000   0.0000   0.0000   0.0000   0.0000   0.0000   0.0000
     0.0000   0.0000   0.0000   0.0000   0.0000   0.0000   0.0000   0.0000
     0.0000   0.0000   0.0000   0.0000   0.0000   0.0000   0.0000   0.0000
     0.0000   0.0000   0.0000   0.0000   0.0000   0.0000   0.0000   0.0000
     0.0000   0.0000   0.0000   0.0000   0.0000   0.0000   0.0000   0.0000
     0.0000   0.0000   0.0000   0.0000   0.0000   0.0000   0.0000   0.0000
     0.0000   0.0000   0.0000   0.0000   0.0000   0.0000   0.0000   0.0000

          k = 0.0000-0.5774 0.0000 (100622 PWs)   bands (ev):

   -69.1493 -69.1395 -69.0695 -69.0554 -69.0343 -69.0339 -69.0324 -69.0318
   -69.0189 -69.0186 -69.0185 -69.0181 -69.0164 -69.0160 -69.0131 -69.0127
   -69.0127 -69.0118 -69.0091 -69.0071 -69.0070 -69.0068 -69.0068 -69.0067
   -69.0065 -69.0064 -69.0062 -69.0047 -69.0044 -69.0043 -69.0041 -69.0014
   -68.9951 -68.9951 -68.9774 -68.9771 -68.6456 -68.6421 -68.6413 -68.6397
   -68.6393 -68.6365 -68.6365 -68.6360 -68.6360 -68.6344 -68.6344 -68.6341
   -68.6341 -68.6332 -68.6332 -68.6327 -68.6326 -68.6325 -68.6324 -68.6320
   -68.6319 -68.6319 -68.6317 -68.6314 -68.6314 -68.6311 -68.6311 -68.6308
   -68.6307 -68.6302 -68.6292 -68.6292 -68.6287 -68.6287 -68.6236 -68.6236
   -35.4825 -35.4063 -35.3481 -35.3040 -35.3037 -35.3034 -35.3028 -35.3003
   -35.2991 -35.2958 -35.2957 -35.2954 -35.2954 -35.2886 -35.2885 -35.2548
   -35.2402 -35.2367 -35.2362 -35.2360 -35.2358 -35.2351 -35.2351 -35.2311
   -35.2289 -35.2286 -35.2280 -35.2276 -35.2270 -35.2269 -35.2268 -35.2251
   -35.2248 -35.2246 -35.2196 -35.2194 -35.2181 -35.2173 -35.2166 -35.1875
   -35.1827 -35.1816 -35.1787 -35.1777 -35.1751 -35.1741 -35.1733 -35.1727
   -35.1718 -35.1716 -35.1713 -35.1707 -35.1706 -35.1702 -35.1701 -35.1692
   -35.1690 -35.1645 -35.1640 -35.1629 -35.1610 -35.1599 -35.1593 -35.1586
   -35.1580 -35.1577 -35.1550 -35.1550 -35.1547 -35.1546 -35.1373 -35.1359
   -35.1074 -35.1012 -35.0870 -35.0694 -35.0506 -35.0444 -35.0438 -35.0423
   -35.0382 -35.0365 -35.0320 -35.0317 -35.0304 -35.0280 -35.0252 -35.0229
   -35.0206 -35.0204 -35.0199 -35.0180 -35.0173 -35.0150 -35.0144 -35.0137
   -35.0135 -35.0132 -35.0125 -35.0113 -35.0088 -35.0065 -35.0044 -35.0013
   -34.9979 -34.9977 -34.9936 -34.9859 -34.8399 -34.8395 -34.8331 -34.8307
   -34.8300 -34.8298 -34.8293 -34.8268 -34.8266 -34.8258 -34.8257 -34.8255
   -34.8239 -34.8233 -34.8228 -34.8225 -34.8224 -34.8221 -34.8218 -34.8215
   -34.8211 -34.8210 -34.8204 -34.8201 -34.8200 -34.8198 -34.8192 -34.8186
   -34.8180 -34.8177 -34.8162 -34.8155 -34.8126 -34.8119 -34.8085 -34.8058
   -34.7681 -34.7673 -34.7667 -34.7655 -34.7644 -34.7635 -34.7626 -34.7616
   -34.7607 -34.7604 -34.7599 -34.7598 -34.7597 -34.7592 -34.7587 -34.7578
   -34.7574 -34.7566 -34.7562 -34.7557 -34.7552 -34.7546 -34.7545 -34.7542
   -34.7539 -34.7538 -34.7531 -34.7531 -34.7513 -34.7509 -34.7505 -34.7503
   -34.7498 -34.7494 -34.7399 -34.7390 -34.7079 -34.7010 -34.6981 -34.6971
   -34.6967 -34.6965 -34.6960 -34.6951 -34.6921 -34.6915 -34.6905 -34.6897
   -34.6895 -34.6868 -34.6835 -34.6829 -34.6821 -34.6807 -34.6804 -34.6791
   -34.6790 -34.6777 -34.6767 -34.6761 -34.6753 -34.6739 -34.6737 -34.6730
   -34.6730 -34.6729 -34.6727 -34.6716 -34.6710 -34.6706 -34.6633 -34.6631
     3.5307   3.5873   4.0813   4.1232   4.4965   4.5902   4.5981   4.6000
     4.8842   4.8933   4.9523   4.9938   4.9971   5.0074   5.0519   5.0591
     5.2033   5.2143   5.4722   5.4772   5.4832   5.4914   5.5500   5.5649
     5.6037   5.6278   5.6399   5.6428   5.6692   5.6769   5.6825   5.6843
     5.9911   5.9946   6.0076   6.0127   8.7363   9.9653  10.0062  10.1212
    10.1306  10.1640  10.1672  10.1708  10.2725  10.3535  10.3805  10.4007
    10.4760  10.4914  10.4935  10.4969  10.6625  10.7155  10.7156  10.7203
    10.7238  10.7545  10.7552  10.7607  10.7909  10.8603  10.8665  10.8672
    10.9805  11.1407  11.1437  11.1478  11.1975  11.2176  11.3892  11.4368
    11.4370  11.4427  11.6113  11.6346  11.7281  11.7392  11.7485  11.7538
    11.7923  11.9460  11.9502  11.9522  11.9567  11.9580  12.0123  12.0184
    12.0258  12.0281  12.2431  12.3216  12.3223  12.3299  12.3456  12.3590
    12.3618  12.3688  12.4818  12.4970  12.4991  12.5126  12.5882  12.6062
    12.6547  12.6641  12.7029  12.7139  12.7207  12.7253  12.7647  12.7718
    12.8467  12.8841  12.9050  12.9309  12.9407  12.9413  12.9532  12.9563
    12.9607  12.9623  12.9660  12.9684  13.0636  13.0796  13.0905  13.0921
    13.2894  13.2929  13.2930  13.3050  13.3093  13.3151  13.4007  13.4385
    13.4515  13.4580  13.4895  13.5065  13.6038  13.8336  13.8446  14.1791
    14.1932  14.2854  14.2986  14.5375  14.5461  14.5952  14.6084  14.6111
    14.6308  14.6643  14.6661  14.6752  14.6836  14.7086  14.7367  14.7512
    14.7553  14.7588  14.7637  14.8006  14.8100  14.8112  14.8156  14.8232
    14.8277  14.8296  14.8323  14.8339  14.8392  14.8418  14.8425  14.8488
    14.8768  14.8979  14.9025  14.9026  14.9157  14.9290  14.9375  14.9439
    15.0475  15.0700  15.0785  15.0847  15.0953  15.1017  15.1079  15.1174
    15.1649  15.1836  15.1888  15.1922  15.1989  15.2075  15.2568  15.2655
    15.2716  15.2809  15.2833  15.3264  15.3314  15.3325  15.3885  15.4225
    15.4227  15.4281  15.4301  15.4304  15.4412  15.4485  15.4685  15.4758
    15.4775  15.4813  15.5754  15.5775  15.5821  15.5850  15.6113  15.6224
    15.8829  15.9040  15.9187  15.9261  15.9495  15.9778  15.9793  15.9864
    15.9948  15.9976  16.0046  16.0152  16.0175  16.0201  16.0280  16.0523
    16.0534  16.0546  16.0558  16.0614  16.0696  16.0791  16.0836  16.0865
    16.0914  16.0945  16.0974  16.0982  16.1644  16.1734  16.1938  16.2000
    16.3171  16.3310  16.3347  16.3431  16.4106  16.4154  16.4176  16.4321
    16.4655  16.4673  16.4782  16.4876  16.5785  16.5844  16.5927  16.5936
    16.6179  16.6235  16.6292  16.6343  16.6396  16.6442  16.6838  16.7011
    16.7231  16.7254  16.7301  16.7398  16.7436  16.7463  16.7510  16.7578
    16.8076  16.8123  16.8275  16.8287  16.8407  16.8630  16.8688  16.8813
    16.8889  16.8988  16.9593  16.9731  16.9846  16.9992  16.9995  17.0122
    17.0338  17.0356  17.0480  17.0552  17.0560  17.0585  17.0588  17.0624
    17.0684  17.0816  17.0930  17.0973  17.1034  17.1165  17.1250  17.1330
    17.1944  17.2053  17.2098  17.2149  17.2268  17.2285  17.2303  17.2418
    17.2452  17.2519  17.2646  17.2704  17.2790  17.2913  17.3195  17.3198
    17.3225  17.3241  17.3309  17.3448  17.3783  17.3856  17.4090  17.4341
    17.4425  17.4508  17.4866  17.4937  17.4944  17.4970  17.5335  17.5409
    17.5449  17.5476  17.5714  17.5833  17.7054  17.7106  17.7372  17.7464
    17.8133  17.8364  17.8722  17.8802  17.8803  17.8865  17.8876  17.8896
    17.8929  17.8959  17.9445  17.9656  17.9716  17.9781  17.9785  17.9820
    17.9869  17.9921  17.9940  17.9965  18.0181  18.0247  18.0371  18.0385
    18.0422  18.0451  18.0482  18.0572  18.0591  18.0700  18.1000  18.1027
    18.1371  18.1396  18.1519  18.1519  18.1633  18.1686  18.1721  18.1806
    18.1808  18.1868  18.1886  18.1902  18.1911  18.1936  18.1954  18.1982
    18.2009  18.2011  18.2189  18.2310  18.2707  18.2743  18.2756  18.2767
    18.2986  18.3043  18.3058  18.3117  18.3391  18.3435  18.3442  18.3494
    18.3513  18.3560  18.3576  18.3608  18.4411  18.4501  18.4539  18.4546
    18.5826  18.5961  18.6310  18.6448  18.9410  18.9932  19.0082  19.0128
    19.0463  19.0614  19.2109  19.2313  19.2393  19.2435  19.2501  19.2662
    19.2749  19.2809  19.2844  19.2854  19.2887  19.2893  19.3279  19.3384
    19.4695  19.4783  19.4891  19.4909  19.5161  19.5295  19.5419  19.5441
    19.6440  19.6646  19.6745  19.6790  19.8740  19.8919  19.9665  19.9743
    19.9788  19.9933  20.1188  20.1953  20.1980  20.2047  20.2067  20.2226
    20.3145  20.3178  20.3179  20.3199  20.3253  20.3292  20.3563  20.4065
    20.4288  20.4421  20.4524  20.4558  20.4717  20.4748  20.5010  20.5045
    20.6929  20.7089  20.7322  20.7533  20.8497  20.8574  21.1209  21.1381
    21.3056  21.5692  21.6013  21.6107  21.6390  21.8684  21.8778  21.9000

     occupation numbers 
     1.0000   1.0000   1.0000   1.0000   1.0000   1.0000   1.0000   1.0000
     1.0000   1.0000   1.0000   1.0000   1.0000   1.0000   1.0000   1.0000
     1.0000   1.0000   1.0000   1.0000   1.0000   1.0000   1.0000   1.0000
     1.0000   1.0000   1.0000   1.0000   1.0000   1.0000   1.0000   1.0000
     1.0000   1.0000   1.0000   1.0000   1.0000   1.0000   1.0000   1.0000
     1.0000   1.0000   1.0000   1.0000   1.0000   1.0000   1.0000   1.0000
     1.0000   1.0000   1.0000   1.0000   1.0000   1.0000   1.0000   1.0000
     1.0000   1.0000   1.0000   1.0000   1.0000   1.0000   1.0000   1.0000
     1.0000   1.0000   1.0000   1.0000   1.0000   1.0000   1.0000   1.0000
     1.0000   1.0000   1.0000   1.0000   1.0000   1.0000   1.0000   1.0000
     1.0000   1.0000   1.0000   1.0000   1.0000   1.0000   1.0000   1.0000
     1.0000   1.0000   1.0000   1.0000   1.0000   1.0000   1.0000   1.0000
     1.0000   1.0000   1.0000   1.0000   1.0000   1.0000   1.0000   1.0000
     1.0000   1.0000   1.0000   1.0000   1.0000   1.0000   1.0000   1.0000
     1.0000   1.0000   1.0000   1.0000   1.0000   1.0000   1.0000   1.0000
     1.0000   1.0000   1.0000   1.0000   1.0000   1.0000   1.0000   1.0000
     1.0000   1.0000   1.0000   1.0000   1.0000   1.0000   1.0000   1.0000
     1.0000   1.0000   1.0000   1.0000   1.0000   1.0000   1.0000   1.0000
     1.0000   1.0000   1.0000   1.0000   1.0000   1.0000   1.0000   1.0000
     1.0000   1.0000   1.0000   1.0000   1.0000   1.0000   1.0000   1.0000
     1.0000   1.0000   1.0000   1.0000   1.0000   1.0000   1.0000   1.0000
     1.0000   1.0000   1.0000   1.0000   1.0000   1.0000   1.0000   1.0000
     1.0000   1.0000   1.0000   1.0000   1.0000   1.0000   1.0000   1.0000
     1.0000   1.0000   1.0000   1.0000   1.0000   1.0000   1.0000   1.0000
     1.0000   1.0000   1.0000   1.0000   1.0000   1.0000   1.0000   1.0000
     1.0000   1.0000   1.0000   1.0000   1.0000   1.0000   1.0000   1.0000
     1.0000   1.0000   1.0000   1.0000   1.0000   1.0000   1.0000   1.0000
     1.0000   1.0000   1.0000   1.0000   1.0000   1.0000   1.0000   1.0000
     1.0000   1.0000   1.0000   1.0000   1.0000   1.0000   1.0000   1.0000
     1.0000   1.0000   1.0000   1.0000   1.0000   1.0000   1.0000   1.0000
     1.0000   1.0000   1.0000   1.0000   1.0000   1.0000   1.0000   1.0000
     1.0000   1.0000   1.0000   1.0000   1.0000   1.0000   1.0000   1.0000
     1.0000   1.0000   1.0000   1.0000   1.0000   1.0000   1.0000   1.0000
     1.0000   1.0000   1.0000   1.0000   1.0000   1.0000   1.0000   1.0000
     1.0000   1.0000   1.0000   1.0000   1.0000   1.0000   1.0000   1.0000
     1.0000   1.0000   1.0000   1.0000   1.0000   1.0000   1.0000   1.0000
     1.0000   1.0000   1.0000   1.0000   1.0000   1.0000   1.0000   1.0000
     1.0000   1.0000   1.0000   1.0000   1.0000   1.0000   1.0000   1.0000
     1.0000   1.0000   1.0000   1.0000   1.0000   1.0000   1.0000   1.0000
     1.0000   1.0000   1.0000   1.0000   1.0000   1.0000   1.0000   1.0000
     1.0000   1.0000   1.0000   1.0000   1.0000   1.0000   1.0000   1.0000
     1.0000   1.0000   1.0000   1.0000   1.0000   1.0000   1.0000   1.0000
     1.0000   1.0000   1.0000   1.0000   1.0000   1.0000   1.0000   1.0000
     1.0000   1.0000   1.0000   1.0000   1.0000   1.0000   1.0000   1.0000
     1.0000   1.0000   1.0000   1.0000   1.0000   1.0000   1.0000   1.0000
     1.0000   1.0000   1.0000   1.0000   1.0000   1.0000   1.0000   1.0000
     1.0000   1.0000   1.0000   1.0000   1.0000   1.0000   1.0000   1.0000
     1.0000   1.0000   1.0000   1.0000   1.0000   1.0000   1.0000   1.0000
     1.0000   1.0000   1.0000   1.0000   1.0000   1.0000   1.0000   1.0000
     1.0000   1.0000   1.0000   1.0000   1.0000   1.0000   1.0000   1.0000
     1.0000   1.0000   1.0000   1.0000   1.0000   1.0000   1.0000   1.0000
     1.0000   1.0000   1.0000   1.0000   1.0000   1.0000   1.0000   1.0000
     1.0000   1.0000   1.0000   1.0000   1.0000   1.0000   1.0000   1.0000
     1.0000   1.0000   1.0000   1.0000   1.0000   1.0000   1.0000   1.0000
     1.0000   1.0000   1.0000   1.0000   1.0000   1.0000   1.0000   1.0000
     1.0000   1.0000   1.0000   1.0000   1.0000   1.0000   1.0000   1.0000
     1.0000   1.0000   1.0000   1.0000   1.0000   1.0000   1.0000   1.0000
     1.0000   1.0000   1.0000   1.0000   1.0000   1.0000   1.0000   1.0000
     1.0000   1.0000   1.0000   1.0000   1.0000   1.0000   1.0000   1.0000
     1.0000   1.0000   1.0000   1.0000   1.0000   1.0000   1.0000   1.0000
     1.0000   1.0000   1.0000   1.0000   1.0000   1.0000   1.0000   1.0000
     1.0000   1.0000   1.0000   1.0000   1.0000   1.0000   1.0000   1.0000
     1.0000   1.0000   1.0000   1.0000   1.0000   1.0000   1.0000   1.0000
     1.0000   1.0000   1.0000   1.0000   1.0000   1.0000   1.0000   1.0000
     1.0000   1.0000   1.0000   1.0000   1.0000   1.0000   1.0000   1.0000
     1.0000   1.0000   1.0000   1.0000   1.0000   1.0000   1.0000   1.0000
     1.0000   1.0000   1.0000   1.0000   1.0000   1.0000   1.0000   1.0000
     1.0000   1.0000   1.0000   1.0000   1.0000   1.0000   1.0000   1.0000
     1.0000   1.0000   1.0000   1.0000   1.0000   1.0000   1.0000   1.0000
     0.9999   0.9999   0.9999   0.9999   0.9995   0.9994   0.9994   0.9993
     0.9990   0.9989   0.9988   0.9987   0.9985   0.9984   0.9970   0.9960
     0.9945   0.9943   0.9939   0.9930   0.9926   0.9923   0.9917   0.9909
     0.9822   0.9812   0.9772   0.9769   0.9732   0.9652   0.9628   0.9573
     0.9535   0.9483   0.9056   0.8929   0.8816   0.8659   0.8655   0.8506
     0.8230   0.8206   0.8032   0.7926   0.7914   0.7878   0.7873   0.7819
     0.7725   0.7514   0.7321   0.7247   0.7140   0.6906   0.6747   0.6596
     0.5369   0.5143   0.5049   0.4944   0.4697   0.4662   0.4624   0.4387
     0.4318   0.4183   0.3926   0.3811   0.3641   0.3405   0.2885   0.2879
     0.2831   0.2804   0.2686   0.2454   0.1940   0.1837   0.1532   0.1244
     0.1156   0.1074   0.0769   0.0717   0.0713   0.0694   0.0475   0.0438
     0.0419   0.0406   0.0310   0.0269   0.0052   0.0048   0.0032   0.0027
     0.0009   0.0006   0.0003   0.0003   0.0003   0.0002   0.0002   0.0002
     0.0002   0.0002   0.0001   0.0000   0.0000   0.0000   0.0000   0.0000
     0.0000   0.0000   0.0000   0.0000   0.0000   0.0000   0.0000   0.0000
     0.0000   0.0000   0.0000   0.0000   0.0000   0.0000   0.0000   0.0000
     0.0000   0.0000   0.0000   0.0000   0.0000   0.0000   0.0000   0.0000
     0.0000   0.0000   0.0000   0.0000   0.0000   0.0000   0.0000   0.0000
     0.0000   0.0000   0.0000   0.0000   0.0000   0.0000   0.0000   0.0000
     0.0000   0.0000   0.0000   0.0000   0.0000   0.0000   0.0000   0.0000
     0.0000   0.0000   0.0000   0.0000   0.0000   0.0000   0.0000   0.0000
     0.0000   0.0000   0.0000   0.0000   0.0000   0.0000   0.0000   0.0000
     0.0000   0.0000   0.0000   0.0000   0.0000   0.0000   0.0000   0.0000
     0.0000   0.0000   0.0000   0.0000   0.0000   0.0000   0.0000   0.0000
     0.0000   0.0000   0.0000   0.0000   0.0000   0.0000   0.0000   0.0000
     0.0000   0.0000   0.0000   0.0000   0.0000   0.0000   0.0000   0.0000
     0.0000   0.0000   0.0000   0.0000   0.0000   0.0000   0.0000   0.0000
     0.0000   0.0000   0.0000   0.0000   0.0000   0.0000   0.0000   0.0000
     0.0000   0.0000   0.0000   0.0000   0.0000   0.0000   0.0000   0.0000
     0.0000   0.0000   0.0000   0.0000   0.0000   0.0000   0.0000   0.0000
     0.0000   0.0000   0.0000   0.0000   0.0000   0.0000   0.0000   0.0000

          k = 0.0000-0.5774 0.2850 (100630 PWs)   bands (ev):

   -69.1493 -69.1395 -69.0695 -69.0554 -69.0343 -69.0339 -69.0324 -69.0318
   -69.0189 -69.0186 -69.0185 -69.0181 -69.0164 -69.0160 -69.0131 -69.0127
   -69.0127 -69.0118 -69.0091 -69.0071 -69.0070 -69.0068 -69.0068 -69.0067
   -69.0065 -69.0064 -69.0062 -69.0047 -69.0044 -69.0043 -69.0041 -69.0014
   -68.9951 -68.9951 -68.9774 -68.9771 -68.6456 -68.6421 -68.6413 -68.6397
   -68.6393 -68.6365 -68.6365 -68.6360 -68.6360 -68.6345 -68.6344 -68.6341
   -68.6341 -68.6332 -68.6332 -68.6327 -68.6326 -68.6325 -68.6324 -68.6320
   -68.6319 -68.6319 -68.6317 -68.6314 -68.6314 -68.6311 -68.6311 -68.6308
   -68.6307 -68.6302 -68.6292 -68.6292 -68.6287 -68.6287 -68.6236 -68.6236
   -35.4825 -35.4063 -35.3481 -35.3039 -35.3037 -35.3035 -35.3028 -35.3003
   -35.2991 -35.2959 -35.2956 -35.2954 -35.2954 -35.2886 -35.2885 -35.2548
   -35.2402 -35.2372 -35.2362 -35.2358 -35.2356 -35.2351 -35.2351 -35.2312
   -35.2290 -35.2285 -35.2279 -35.2276 -35.2270 -35.2269 -35.2266 -35.2252
   -35.2248 -35.2247 -35.2197 -35.2194 -35.2180 -35.2174 -35.2166 -35.1875
   -35.1828 -35.1815 -35.1787 -35.1776 -35.1752 -35.1741 -35.1736 -35.1722
   -35.1718 -35.1715 -35.1711 -35.1708 -35.1705 -35.1704 -35.1700 -35.1693
   -35.1692 -35.1647 -35.1639 -35.1630 -35.1609 -35.1598 -35.1594 -35.1584
   -35.1578 -35.1575 -35.1561 -35.1557 -35.1542 -35.1538 -35.1374 -35.1358
   -35.1074 -35.1013 -35.0871 -35.0697 -35.0506 -35.0454 -35.0443 -35.0427
   -35.0377 -35.0363 -35.0323 -35.0308 -35.0297 -35.0275 -35.0251 -35.0244
   -35.0214 -35.0199 -35.0182 -35.0176 -35.0171 -35.0158 -35.0136 -35.0134
   -35.0127 -35.0123 -35.0119 -35.0110 -35.0085 -35.0070 -35.0055 -35.0023
   -34.9987 -34.9984 -34.9932 -34.9862 -34.8412 -34.8383 -34.8333 -34.8325
   -34.8311 -34.8310 -34.8273 -34.8270 -34.8262 -34.8260 -34.8254 -34.8252
   -34.8236 -34.8231 -34.8227 -34.8222 -34.8222 -34.8217 -34.8215 -34.8214
   -34.8209 -34.8207 -34.8203 -34.8199 -34.8199 -34.8194 -34.8185 -34.8184
   -34.8180 -34.8170 -34.8155 -34.8151 -34.8136 -34.8128 -34.8099 -34.8074
   -34.7666 -34.7665 -34.7657 -34.7646 -34.7636 -34.7632 -34.7620 -34.7614
   -34.7611 -34.7609 -34.7604 -34.7587 -34.7587 -34.7585 -34.7581 -34.7575
   -34.7574 -34.7569 -34.7566 -34.7565 -34.7562 -34.7559 -34.7554 -34.7554
   -34.7550 -34.7545 -34.7544 -34.7542 -34.7534 -34.7527 -34.7516 -34.7484
   -34.7472 -34.7468 -34.7405 -34.7383 -34.7079 -34.7010 -34.6982 -34.6970
   -34.6968 -34.6964 -34.6960 -34.6952 -34.6920 -34.6916 -34.6905 -34.6897
   -34.6895 -34.6868 -34.6835 -34.6829 -34.6822 -34.6806 -34.6803 -34.6796
   -34.6786 -34.6778 -34.6767 -34.6761 -34.6753 -34.6739 -34.6737 -34.6730
   -34.6730 -34.6729 -34.6727 -34.6716 -34.6712 -34.6705 -34.6634 -34.6630
     3.5989   3.6575   4.1028   4.1802   4.1870   4.1892   4.6209   4.6540
     4.9291   4.9387   4.9794   5.0298   5.0936   5.1070   5.2413   5.2525
     5.2718   5.2771   5.3239   5.3409   5.4360   5.4490   5.5038   5.5144
     5.5856   5.6002   5.6034   5.6153   5.6368   5.6438   5.8328   5.8482
     5.8625   5.8705   6.1233   6.1397   8.7277   9.9100   9.9470  10.0352
    10.0875  10.1227  10.1323  10.1662  10.2116  10.2687  10.2693  10.3301
    10.3580  10.4065  10.4201  10.4280  10.4381  10.4525  10.4977  10.5229
    10.6259  10.7293  10.7424  10.7503  10.7746  10.7776  11.0847  11.1293
    11.1616  11.2412  11.2817  11.3119  11.4013  11.5250  11.5438  11.5475
    11.6037  11.6343  11.6649  11.6824  11.7850  11.8620  11.8786  11.9085
    11.9204  11.9299  11.9647  11.9814  11.9868  11.9899  12.0552  12.0657
    12.2275  12.3012  12.3092  12.3150  12.3724  12.3893  12.3959  12.4044
    12.4375  12.4488  12.4547  12.4701  12.4850  12.4904  12.5435  12.5525
    12.5669  12.5773  12.6027  12.6212  12.6409  12.6506  12.7290  12.7415
    12.7845  12.7953  12.8537  12.8642  12.8864  12.9016  12.9616  12.9992
    13.0036  13.0126  13.0357  13.0455  13.0780  13.0833  13.1807  13.1854
    13.2177  13.2429  13.2573  13.2658  13.2698  13.2784  13.2936  13.3200
    13.3709  13.3796  13.4940  13.5076  13.5490  13.5836  13.5980  13.6450
    13.6944  14.6085  14.6137  14.6201  14.6209  14.6298  14.6416  14.6547
    14.6597  14.6632  14.6774  14.6906  14.6977  14.7021  14.7318  14.7359
    14.7435  14.7478  14.7499  14.8014  14.8051  14.8095  14.8110  14.8122
    14.8198  14.8224  14.8279  14.8315  14.8359  14.8378  14.8588  14.8660
    14.8702  14.8762  14.8903  14.9163  14.9404  14.9593  14.9640  14.9697
    15.0274  15.0352  15.0922  15.1003  15.1036  15.1133  15.1203  15.1269
    15.1392  15.1513  15.1634  15.1919  15.2112  15.2169  15.2200  15.2285
    15.2300  15.2319  15.2360  15.2427  15.3045  15.3251  15.3369  15.3622
    15.3745  15.3803  15.3875  15.4019  15.4057  15.4090  15.4464  15.4469
    15.4907  15.5092  15.5794  15.5933  15.6049  15.6122  15.7333  15.7393
    15.7996  15.8146  15.8966  15.9022  15.9094  15.9133  15.9267  15.9332
    15.9630  15.9830  16.0156  16.0389  16.0539  16.0647  16.0681  16.0748
    16.0868  16.0967  16.1070  16.1121  16.1141  16.1242  16.1425  16.1430
    16.1635  16.1690  16.2332  16.2374  16.2803  16.2831  16.2939  16.3045
    16.3437  16.3488  16.3655  16.3670  16.3898  16.3958  16.4087  16.4233
    16.4288  16.4297  16.5291  16.5452  16.5502  16.5588  16.5691  16.5702
    16.5743  16.5792  16.6044  16.6256  16.6647  16.6697  16.6837  16.6900
    16.7080  16.7158  16.7252  16.7349  16.7426  16.7468  16.7660  16.7793
    16.7849  16.7923  16.7994  16.8017  16.8765  16.8958  16.8997  16.9038
    16.9167  16.9181  16.9269  16.9310  16.9615  16.9699  16.9822  16.9868
    17.0018  17.0085  17.0089  17.0153  17.0164  17.0224  17.0243  17.0281
    17.0358  17.0419  17.0757  17.0904  17.1120  17.1190  17.1263  17.1363
    17.1443  17.1498  17.1889  17.2050  17.2059  17.2174  17.2204  17.2218
    17.2275  17.2319  17.2339  17.2361  17.2746  17.2811  17.2973  17.3077
    17.3278  17.3292  17.3383  17.3420  17.3502  17.3584  17.3915  17.4054
    17.4571  17.4627  17.4845  17.4857  17.4963  17.4997  17.5030  17.5046
    17.5184  17.5204  17.6153  17.6265  17.6512  17.6567  17.7303  17.7345
    17.8529  17.8667  17.8745  17.8823  17.8829  17.8848  17.9012  17.9156
    17.9201  17.9285  17.9545  17.9613  17.9643  17.9686  17.9816  17.9972
    18.0082  18.0141  18.0166  18.0245  18.0251  18.0268  18.0437  18.0441
    18.0485  18.0566  18.0613  18.0649  18.0701  18.0736  18.0868  18.0989
    18.1186  18.1286  18.1335  18.1381  18.1663  18.1669  18.1766  18.1795
    18.1961  18.2004  18.2023  18.2071  18.2255  18.2305  18.2349  18.2379
    18.2397  18.2457  18.2493  18.2516  18.2572  18.2600  18.2639  18.2648
    18.2990  18.3038  18.3558  18.3599  18.3615  18.3651  18.3675  18.3685
    18.3789  18.3866  18.4050  18.4096  18.4239  18.4309  18.4741  18.4831
    18.5366  18.5467  18.6744  18.6883  18.7619  18.7806  19.0386  19.0589
    19.0713  19.1109  19.1227  19.1295  19.1485  19.1575  19.1965  19.2049
    19.2877  19.2906  19.2996  19.3038  19.3331  19.3374  19.3487  19.3575
    19.4384  19.4432  19.5261  19.5329  19.6191  19.6209  19.6676  19.7113
    19.7590  19.7653  19.7780  19.7919  19.8301  19.8516  19.8605  19.8685
    19.9273  19.9402  19.9973  20.0250  20.0298  20.0462  20.2032  20.2228
    20.2316  20.2578  20.2858  20.2967  20.3050  20.3195  20.3269  20.3367
    20.4106  20.4299  20.4411  20.4480  20.4992  20.5050  20.5063  20.5163
    20.6052  20.6286  20.6904  20.7178  20.7298  20.7398  20.8376  20.8525
    21.3372  21.3619  21.4462  21.5786  21.6039  21.8490  21.8805  22.0616

     occupation numbers 
     1.0000   1.0000   1.0000   1.0000   1.0000   1.0000   1.0000   1.0000
     1.0000   1.0000   1.0000   1.0000   1.0000   1.0000   1.0000   1.0000
     1.0000   1.0000   1.0000   1.0000   1.0000   1.0000   1.0000   1.0000
     1.0000   1.0000   1.0000   1.0000   1.0000   1.0000   1.0000   1.0000
     1.0000   1.0000   1.0000   1.0000   1.0000   1.0000   1.0000   1.0000
     1.0000   1.0000   1.0000   1.0000   1.0000   1.0000   1.0000   1.0000
     1.0000   1.0000   1.0000   1.0000   1.0000   1.0000   1.0000   1.0000
     1.0000   1.0000   1.0000   1.0000   1.0000   1.0000   1.0000   1.0000
     1.0000   1.0000   1.0000   1.0000   1.0000   1.0000   1.0000   1.0000
     1.0000   1.0000   1.0000   1.0000   1.0000   1.0000   1.0000   1.0000
     1.0000   1.0000   1.0000   1.0000   1.0000   1.0000   1.0000   1.0000
     1.0000   1.0000   1.0000   1.0000   1.0000   1.0000   1.0000   1.0000
     1.0000   1.0000   1.0000   1.0000   1.0000   1.0000   1.0000   1.0000
     1.0000   1.0000   1.0000   1.0000   1.0000   1.0000   1.0000   1.0000
     1.0000   1.0000   1.0000   1.0000   1.0000   1.0000   1.0000   1.0000
     1.0000   1.0000   1.0000   1.0000   1.0000   1.0000   1.0000   1.0000
     1.0000   1.0000   1.0000   1.0000   1.0000   1.0000   1.0000   1.0000
     1.0000   1.0000   1.0000   1.0000   1.0000   1.0000   1.0000   1.0000
     1.0000   1.0000   1.0000   1.0000   1.0000   1.0000   1.0000   1.0000
     1.0000   1.0000   1.0000   1.0000   1.0000   1.0000   1.0000   1.0000
     1.0000   1.0000   1.0000   1.0000   1.0000   1.0000   1.0000   1.0000
     1.0000   1.0000   1.0000   1.0000   1.0000   1.0000   1.0000   1.0000
     1.0000   1.0000   1.0000   1.0000   1.0000   1.0000   1.0000   1.0000
     1.0000   1.0000   1.0000   1.0000   1.0000   1.0000   1.0000   1.0000
     1.0000   1.0000   1.0000   1.0000   1.0000   1.0000   1.0000   1.0000
     1.0000   1.0000   1.0000   1.0000   1.0000   1.0000   1.0000   1.0000
     1.0000   1.0000   1.0000   1.0000   1.0000   1.0000   1.0000   1.0000
     1.0000   1.0000   1.0000   1.0000   1.0000   1.0000   1.0000   1.0000
     1.0000   1.0000   1.0000   1.0000   1.0000   1.0000   1.0000   1.0000
     1.0000   1.0000   1.0000   1.0000   1.0000   1.0000   1.0000   1.0000
     1.0000   1.0000   1.0000   1.0000   1.0000   1.0000   1.0000   1.0000
     1.0000   1.0000   1.0000   1.0000   1.0000   1.0000   1.0000   1.0000
     1.0000   1.0000   1.0000   1.0000   1.0000   1.0000   1.0000   1.0000
     1.0000   1.0000   1.0000   1.0000   1.0000   1.0000   1.0000   1.0000
     1.0000   1.0000   1.0000   1.0000   1.0000   1.0000   1.0000   1.0000
     1.0000   1.0000   1.0000   1.0000   1.0000   1.0000   1.0000   1.0000
     1.0000   1.0000   1.0000   1.0000   1.0000   1.0000   1.0000   1.0000
     1.0000   1.0000   1.0000   1.0000   1.0000   1.0000   1.0000   1.0000
     1.0000   1.0000   1.0000   1.0000   1.0000   1.0000   1.0000   1.0000
     1.0000   1.0000   1.0000   1.0000   1.0000   1.0000   1.0000   1.0000
     1.0000   1.0000   1.0000   1.0000   1.0000   1.0000   1.0000   1.0000
     1.0000   1.0000   1.0000   1.0000   1.0000   1.0000   1.0000   1.0000
     1.0000   1.0000   1.0000   1.0000   1.0000   1.0000   1.0000   1.0000
     1.0000   1.0000   1.0000   1.0000   1.0000   1.0000   1.0000   1.0000
     1.0000   1.0000   1.0000   1.0000   1.0000   1.0000   1.0000   1.0000
     1.0000   1.0000   1.0000   1.0000   1.0000   1.0000   1.0000   1.0000
     1.0000   1.0000   1.0000   1.0000   1.0000   1.0000   1.0000   1.0000
     1.0000   1.0000   1.0000   1.0000   1.0000   1.0000   1.0000   1.0000
     1.0000   1.0000   1.0000   1.0000   1.0000   1.0000   1.0000   1.0000
     1.0000   1.0000   1.0000   1.0000   1.0000   1.0000   1.0000   1.0000
     1.0000   1.0000   1.0000   1.0000   1.0000   1.0000   1.0000   1.0000
     1.0000   1.0000   1.0000   1.0000   1.0000   1.0000   1.0000   1.0000
     1.0000   1.0000   1.0000   1.0000   1.0000   1.0000   1.0000   1.0000
     1.0000   1.0000   1.0000   1.0000   1.0000   1.0000   1.0000   1.0000
     1.0000   1.0000   1.0000   1.0000   1.0000   1.0000   1.0000   1.0000
     1.0000   1.0000   1.0000   1.0000   1.0000   1.0000   1.0000   1.0000
     1.0000   1.0000   1.0000   1.0000   1.0000   1.0000   1.0000   1.0000
     1.0000   1.0000   1.0000   1.0000   1.0000   1.0000   1.0000   1.0000
     1.0000   1.0000   1.0000   1.0000   1.0000   1.0000   1.0000   1.0000
     1.0000   1.0000   1.0000   1.0000   1.0000   1.0000   1.0000   1.0000
     1.0000   1.0000   1.0000   1.0000   1.0000   1.0000   1.0000   1.0000
     1.0000   1.0000   1.0000   1.0000   1.0000   1.0000   1.0000   1.0000
     1.0000   1.0000   1.0000   1.0000   1.0000   1.0000   1.0000   1.0000
     1.0000   1.0000   1.0000   1.0000   1.0000   1.0000   1.0000   1.0000
     1.0000   1.0000   1.0000   1.0000   1.0000   1.0000   1.0000   1.0000
     1.0000   1.0000   1.0000   1.0000   1.0000   1.0000   1.0000   1.0000
     1.0000   1.0000   1.0000   1.0000   1.0000   1.0000   1.0000   1.0000
     1.0000   1.0000   1.0000   1.0000   1.0000   1.0000   1.0000   1.0000
     1.0000   1.0000   1.0000   1.0000   1.0000   1.0000   1.0000   1.0000
     1.0000   1.0000   0.9998   0.9997   0.9997   0.9997   0.9996   0.9996
     0.9995   0.9995   0.9992   0.9988   0.9978   0.9976   0.9970   0.9967
     0.9956   0.9951   0.9943   0.9934   0.9927   0.9922   0.9898   0.9878
     0.9868   0.9855   0.9840   0.9835   0.9595   0.9500   0.9478   0.9455
     0.9377   0.9368   0.9309   0.9280   0.9037   0.8961   0.8840   0.8792
     0.8628   0.8551   0.8546   0.8469   0.8455   0.8380   0.8355   0.8306
     0.8203   0.8119   0.7609   0.7366   0.6986   0.6859   0.6723   0.6532
     0.6379   0.6271   0.5482   0.5149   0.5129   0.4892   0.4829   0.4800
     0.4683   0.4591   0.4550   0.4506   0.3727   0.3602   0.3291   0.3097
     0.2739   0.2716   0.2561   0.2500   0.2365   0.2237   0.1756   0.1577
     0.1015   0.0965   0.0785   0.0776   0.0699   0.0675   0.0654   0.0643
     0.0557   0.0546   0.0181   0.0156   0.0113   0.0104   0.0035   0.0033
     0.0004   0.0003   0.0003   0.0002   0.0002   0.0002   0.0002   0.0001
     0.0001   0.0001   0.0001   0.0000   0.0000   0.0000   0.0000   0.0000
     0.0000   0.0000   0.0000   0.0000   0.0000   0.0000   0.0000   0.0000
     0.0000   0.0000   0.0000   0.0000   0.0000   0.0000   0.0000   0.0000
     0.0000   0.0000   0.0000   0.0000   0.0000   0.0000   0.0000   0.0000
     0.0000   0.0000   0.0000   0.0000   0.0000   0.0000   0.0000   0.0000
     0.0000   0.0000   0.0000   0.0000   0.0000   0.0000   0.0000   0.0000
     0.0000   0.0000   0.0000   0.0000   0.0000   0.0000   0.0000   0.0000
     0.0000   0.0000   0.0000   0.0000   0.0000   0.0000   0.0000   0.0000
     0.0000   0.0000   0.0000   0.0000   0.0000   0.0000   0.0000   0.0000
     0.0000   0.0000   0.0000   0.0000   0.0000   0.0000   0.0000   0.0000
     0.0000   0.0000   0.0000   0.0000   0.0000   0.0000   0.0000   0.0000
     0.0000   0.0000   0.0000   0.0000   0.0000   0.0000   0.0000   0.0000
     0.0000   0.0000   0.0000   0.0000   0.0000   0.0000   0.0000   0.0000
     0.0000   0.0000   0.0000   0.0000   0.0000   0.0000   0.0000   0.0000
     0.0000   0.0000   0.0000   0.0000   0.0000   0.0000   0.0000   0.0000
     0.0000   0.0000   0.0000   0.0000   0.0000   0.0000   0.0000   0.0000
     0.0000   0.0000   0.0000   0.0000   0.0000   0.0000   0.0000   0.0000
     0.0000   0.0000   0.0000   0.0000   0.0000   0.0000   0.0000   0.0000

          k = 0.0000-0.5774-0.5700 (100572 PWs)   bands (ev):

   -69.1493 -69.1395 -69.0695 -69.0554 -69.0343 -69.0339 -69.0324 -69.0318
   -69.0189 -69.0186 -69.0185 -69.0181 -69.0163 -69.0160 -69.0131 -69.0127
   -69.0127 -69.0118 -69.0091 -69.0071 -69.0070 -69.0068 -69.0068 -69.0067
   -69.0065 -69.0064 -69.0062 -69.0047 -69.0044 -69.0044 -69.0041 -69.0014
   -68.9951 -68.9951 -68.9774 -68.9771 -68.6456 -68.6421 -68.6413 -68.6397
   -68.6393 -68.6365 -68.6365 -68.6360 -68.6360 -68.6345 -68.6344 -68.6341
   -68.6341 -68.6332 -68.6332 -68.6327 -68.6326 -68.6325 -68.6324 -68.6320
   -68.6319 -68.6319 -68.6317 -68.6314 -68.6314 -68.6311 -68.6311 -68.6308
   -68.6307 -68.6302 -68.6292 -68.6292 -68.6287 -68.6287 -68.6236 -68.6236
   -35.4825 -35.4063 -35.3481 -35.3038 -35.3037 -35.3037 -35.3028 -35.3002
   -35.2991 -35.2959 -35.2956 -35.2954 -35.2953 -35.2886 -35.2886 -35.2548
   -35.2402 -35.2374 -35.2362 -35.2356 -35.2355 -35.2351 -35.2350 -35.2313
   -35.2291 -35.2285 -35.2276 -35.2276 -35.2272 -35.2270 -35.2263 -35.2253
   -35.2249 -35.2247 -35.2198 -35.2193 -35.2177 -35.2177 -35.2166 -35.1875
   -35.1829 -35.1814 -35.1787 -35.1775 -35.1753 -35.1740 -35.1736 -35.1718
   -35.1717 -35.1712 -35.1710 -35.1709 -35.1706 -35.1702 -35.1698 -35.1697
   -35.1695 -35.1649 -35.1638 -35.1631 -35.1609 -35.1596 -35.1596 -35.1583
   -35.1572 -35.1570 -35.1568 -35.1567 -35.1539 -35.1536 -35.1375 -35.1358
   -35.1074 -35.1013 -35.0871 -35.0700 -35.0505 -35.0463 -35.0447 -35.0426
   -35.0379 -35.0360 -35.0322 -35.0303 -35.0291 -35.0263 -35.0258 -35.0248
   -35.0217 -35.0191 -35.0179 -35.0179 -35.0166 -35.0161 -35.0133 -35.0127
   -35.0116 -35.0116 -35.0109 -35.0108 -35.0079 -35.0071 -35.0069 -35.0039
   -34.9995 -34.9992 -34.9929 -34.9866 -34.8418 -34.8376 -34.8337 -34.8334
   -34.8319 -34.8313 -34.8274 -34.8266 -34.8261 -34.8257 -34.8251 -34.8251
   -34.8237 -34.8229 -34.8226 -34.8223 -34.8220 -34.8218 -34.8215 -34.8212
   -34.8209 -34.8200 -34.8199 -34.8198 -34.8194 -34.8192 -34.8185 -34.8171
   -34.8165 -34.8159 -34.8156 -34.8152 -34.8139 -34.8125 -34.8116 -34.8108
   -34.7662 -34.7649 -34.7643 -34.7628 -34.7625 -34.7620 -34.7610 -34.7604
   -34.7601 -34.7600 -34.7599 -34.7593 -34.7592 -34.7590 -34.7586 -34.7584
   -34.7579 -34.7577 -34.7575 -34.7572 -34.7571 -34.7566 -34.7565 -34.7563
   -34.7561 -34.7560 -34.7558 -34.7554 -34.7532 -34.7523 -34.7510 -34.7475
   -34.7461 -34.7457 -34.7409 -34.7379 -34.7079 -34.7010 -34.6982 -34.6969
   -34.6969 -34.6963 -34.6959 -34.6954 -34.6919 -34.6917 -34.6905 -34.6897
   -34.6895 -34.6868 -34.6836 -34.6829 -34.6822 -34.6804 -34.6803 -34.6799
   -34.6784 -34.6779 -34.6767 -34.6761 -34.6754 -34.6739 -34.6737 -34.6730
   -34.6729 -34.6729 -34.6728 -34.6716 -34.6713 -34.6703 -34.6634 -34.6630
     3.7583   3.8556   3.8613   3.8651   4.3095   4.3639   4.3704   4.3714
     5.0611   5.0728   5.0752   5.0797   5.1733   5.2433   5.2439   5.2458
     5.2834   5.3180   5.3543   5.3562   5.3652   5.3682   5.5171   5.5302
     5.5613   5.5677   5.5726   5.5757   5.6813   5.6909   5.7007   5.7051
     5.9368   5.9459   6.1748   6.1908   8.7192   9.7992   9.8737   9.9665
     9.9724  10.0787  10.0805  10.2250  10.2337  10.2370  10.2572  10.2683
    10.2710  10.2731  10.2735  10.2805  10.4127  10.5405  10.5473  10.5612
    10.5744  10.5805  10.5846  10.5958  10.6953  10.6967  11.1370  11.2561
    11.2599  11.2734  11.2952  11.3017  11.4667  11.6817  11.7660  11.7863
    11.7918  11.7925  11.8310  11.9973  12.0110  12.0177  12.0187  12.0310
    12.0414  12.0434  12.0447  12.0510  12.0679  12.0692  12.0736  12.0762
    12.2007  12.2097  12.2271  12.2329  12.3447  12.3518  12.5098  12.5249
    12.5373  12.5794  12.5907  12.6008  12.6073  12.6205  12.6301  12.6348
    12.6400  12.6447  12.6546  12.6562  12.6613  12.6647  12.6739  12.6775
    12.6819  12.6833  12.8329  12.8415  12.8416  12.8466  12.8503  12.8517
    12.8696  12.8791  12.8797  12.8850  12.9755  12.9918  13.0508  13.0763
    13.0861  13.0899  13.2191  13.2251  13.2277  13.2302  13.2491  13.2620
    13.3704  13.3778  13.3997  13.4034  13.4454  13.4470  13.4520  13.4643
    13.6297  14.6474  14.6501  14.6503  14.6593  14.6650  14.6707  14.6737
    14.7008  14.7019  14.7065  14.7131  14.7139  14.7152  14.7257  14.7322
    14.7377  14.7407  14.7422  14.7510  14.7955  14.7991  14.8055  14.8055
    14.8066  14.8127  14.8249  14.8640  14.8734  14.8745  14.8789  14.8906
    14.8961  14.8970  14.9033  14.9155  14.9291  14.9333  15.0127  15.0371
    15.0396  15.0412  15.0954  15.1039  15.1058  15.1091  15.1128  15.1135
    15.1256  15.1283  15.1364  15.1476  15.1703  15.1703  15.1788  15.1808
    15.1915  15.2219  15.2540  15.2556  15.2854  15.3010  15.3055  15.3077
    15.3302  15.3376  15.3401  15.3657  15.3729  15.3731  15.4005  15.4010
    15.5135  15.5388  15.5442  15.5455  15.7548  15.7576  15.7643  15.7654
    15.8206  15.8281  15.8335  15.8426  15.8565  15.8653  15.8654  15.8703
    15.9669  15.9849  16.0225  16.0606  16.0617  16.0737  16.0816  16.0918
    16.1666  16.1724  16.1766  16.1794  16.1948  16.2131  16.2188  16.2198
    16.2198  16.2368  16.2395  16.2403  16.3410  16.3524  16.3535  16.3576
    16.3616  16.3782  16.3989  16.4024  16.4156  16.4204  16.4209  16.4272
    16.4309  16.4363  16.5393  16.5469  16.5496  16.5629  16.5803  16.5822
    16.5907  16.5934  16.5973  16.6014  16.6640  16.6671  16.6724  16.6755
    16.6915  16.6968  16.7008  16.7071  16.7092  16.7176  16.7512  16.7590
    16.7905  16.8021  16.8069  16.8079  16.8458  16.8678  16.8719  16.8793
    16.9107  16.9257  16.9390  16.9450  16.9463  16.9541  16.9541  16.9585
    16.9585  16.9634  16.9667  16.9747  17.0024  17.0128  17.0138  17.0169
    17.0356  17.0441  17.0453  17.0474  17.0676  17.0872  17.1364  17.1547
    17.1562  17.1564  17.1607  17.1628  17.1692  17.1725  17.1874  17.1949
    17.1976  17.2029  17.2405  17.2476  17.2522  17.2527  17.2583  17.2621
    17.3232  17.3285  17.3552  17.3569  17.3642  17.3706  17.3781  17.3962
    17.3963  17.4053  17.4626  17.4727  17.4825  17.4911  17.5112  17.5159
    17.5649  17.5679  17.5803  17.5859  17.6797  17.6905  17.7016  17.7053
    17.8625  17.8728  17.8761  17.8824  17.8841  17.8859  17.8962  17.9070
    17.9394  17.9442  17.9459  17.9476  17.9823  17.9937  18.0024  18.0030
    18.0097  18.0130  18.0200  18.0231  18.0425  18.0486  18.0581  18.0617
    18.0622  18.0704  18.0710  18.0803  18.0834  18.0844  18.0866  18.0867
    18.0908  18.0950  18.1315  18.1407  18.1654  18.1718  18.2195  18.2197
    18.2287  18.2305  18.2351  18.2407  18.2412  18.2491  18.2496  18.2586
    18.2617  18.2653  18.2664  18.2675  18.2700  18.2718  18.2762  18.2792
    18.3346  18.3393  18.3463  18.3472  18.3896  18.3933  18.3987  18.3997
    18.4181  18.4324  18.4334  18.4334  18.4385  18.4418  18.4913  18.5004
    18.5422  18.5533  18.5571  18.5635  18.8030  18.8277  18.8347  18.8402
    19.0177  19.0345  19.0375  19.0440  19.0986  19.1141  19.2904  19.3020
    19.3160  19.3358  19.3812  19.3974  19.4055  19.4107  19.4231  19.4328
    19.4331  19.4390  19.6130  19.6281  19.6294  19.6319  19.7160  19.7275
    19.7699  19.8002  19.8033  19.8189  19.8575  19.9168  19.9175  19.9276
    19.9294  19.9334  19.9569  19.9709  19.9841  20.0200  20.0340  20.0412
    20.0448  20.0515  20.1635  20.1720  20.1797  20.1981  20.2191  20.2219
    20.2286  20.2308  20.3645  20.3867  20.3935  20.4054  20.6168  20.6375
    20.6394  20.6424  20.7156  20.7615  20.7776  20.7808  20.8283  20.8521
    21.2220  21.2426  21.4368  21.4597  21.5143  21.8200  21.8437  22.3970

     occupation numbers 
     1.0000   1.0000   1.0000   1.0000   1.0000   1.0000   1.0000   1.0000
     1.0000   1.0000   1.0000   1.0000   1.0000   1.0000   1.0000   1.0000
     1.0000   1.0000   1.0000   1.0000   1.0000   1.0000   1.0000   1.0000
     1.0000   1.0000   1.0000   1.0000   1.0000   1.0000   1.0000   1.0000
     1.0000   1.0000   1.0000   1.0000   1.0000   1.0000   1.0000   1.0000
     1.0000   1.0000   1.0000   1.0000   1.0000   1.0000   1.0000   1.0000
     1.0000   1.0000   1.0000   1.0000   1.0000   1.0000   1.0000   1.0000
     1.0000   1.0000   1.0000   1.0000   1.0000   1.0000   1.0000   1.0000
     1.0000   1.0000   1.0000   1.0000   1.0000   1.0000   1.0000   1.0000
     1.0000   1.0000   1.0000   1.0000   1.0000   1.0000   1.0000   1.0000
     1.0000   1.0000   1.0000   1.0000   1.0000   1.0000   1.0000   1.0000
     1.0000   1.0000   1.0000   1.0000   1.0000   1.0000   1.0000   1.0000
     1.0000   1.0000   1.0000   1.0000   1.0000   1.0000   1.0000   1.0000
     1.0000   1.0000   1.0000   1.0000   1.0000   1.0000   1.0000   1.0000
     1.0000   1.0000   1.0000   1.0000   1.0000   1.0000   1.0000   1.0000
     1.0000   1.0000   1.0000   1.0000   1.0000   1.0000   1.0000   1.0000
     1.0000   1.0000   1.0000   1.0000   1.0000   1.0000   1.0000   1.0000
     1.0000   1.0000   1.0000   1.0000   1.0000   1.0000   1.0000   1.0000
     1.0000   1.0000   1.0000   1.0000   1.0000   1.0000   1.0000   1.0000
     1.0000   1.0000   1.0000   1.0000   1.0000   1.0000   1.0000   1.0000
     1.0000   1.0000   1.0000   1.0000   1.0000   1.0000   1.0000   1.0000
     1.0000   1.0000   1.0000   1.0000   1.0000   1.0000   1.0000   1.0000
     1.0000   1.0000   1.0000   1.0000   1.0000   1.0000   1.0000   1.0000
     1.0000   1.0000   1.0000   1.0000   1.0000   1.0000   1.0000   1.0000
     1.0000   1.0000   1.0000   1.0000   1.0000   1.0000   1.0000   1.0000
     1.0000   1.0000   1.0000   1.0000   1.0000   1.0000   1.0000   1.0000
     1.0000   1.0000   1.0000   1.0000   1.0000   1.0000   1.0000   1.0000
     1.0000   1.0000   1.0000   1.0000   1.0000   1.0000   1.0000   1.0000
     1.0000   1.0000   1.0000   1.0000   1.0000   1.0000   1.0000   1.0000
     1.0000   1.0000   1.0000   1.0000   1.0000   1.0000   1.0000   1.0000
     1.0000   1.0000   1.0000   1.0000   1.0000   1.0000   1.0000   1.0000
     1.0000   1.0000   1.0000   1.0000   1.0000   1.0000   1.0000   1.0000
     1.0000   1.0000   1.0000   1.0000   1.0000   1.0000   1.0000   1.0000
     1.0000   1.0000   1.0000   1.0000   1.0000   1.0000   1.0000   1.0000
     1.0000   1.0000   1.0000   1.0000   1.0000   1.0000   1.0000   1.0000
     1.0000   1.0000   1.0000   1.0000   1.0000   1.0000   1.0000   1.0000
     1.0000   1.0000   1.0000   1.0000   1.0000   1.0000   1.0000   1.0000
     1.0000   1.0000   1.0000   1.0000   1.0000   1.0000   1.0000   1.0000
     1.0000   1.0000   1.0000   1.0000   1.0000   1.0000   1.0000   1.0000
     1.0000   1.0000   1.0000   1.0000   1.0000   1.0000   1.0000   1.0000
     1.0000   1.0000   1.0000   1.0000   1.0000   1.0000   1.0000   1.0000
     1.0000   1.0000   1.0000   1.0000   1.0000   1.0000   1.0000   1.0000
     1.0000   1.0000   1.0000   1.0000   1.0000   1.0000   1.0000   1.0000
     1.0000   1.0000   1.0000   1.0000   1.0000   1.0000   1.0000   1.0000
     1.0000   1.0000   1.0000   1.0000   1.0000   1.0000   1.0000   1.0000
     1.0000   1.0000   1.0000   1.0000   1.0000   1.0000   1.0000   1.0000
     1.0000   1.0000   1.0000   1.0000   1.0000   1.0000   1.0000   1.0000
     1.0000   1.0000   1.0000   1.0000   1.0000   1.0000   1.0000   1.0000
     1.0000   1.0000   1.0000   1.0000   1.0000   1.0000   1.0000   1.0000
     1.0000   1.0000   1.0000   1.0000   1.0000   1.0000   1.0000   1.0000
     1.0000   1.0000   1.0000   1.0000   1.0000   1.0000   1.0000   1.0000
     1.0000   1.0000   1.0000   1.0000   1.0000   1.0000   1.0000   1.0000
     1.0000   1.0000   1.0000   1.0000   1.0000   1.0000   1.0000   1.0000
     1.0000   1.0000   1.0000   1.0000   1.0000   1.0000   1.0000   1.0000
     1.0000   1.0000   1.0000   1.0000   1.0000   1.0000   1.0000   1.0000
     1.0000   1.0000   1.0000   1.0000   1.0000   1.0000   1.0000   1.0000
     1.0000   1.0000   1.0000   1.0000   1.0000   1.0000   1.0000   1.0000
     1.0000   1.0000   1.0000   1.0000   1.0000   1.0000   1.0000   1.0000
     1.0000   1.0000   1.0000   1.0000   1.0000   1.0000   1.0000   1.0000
     1.0000   1.0000   1.0000   1.0000   1.0000   1.0000   1.0000   1.0000
     1.0000   1.0000   1.0000   1.0000   1.0000   1.0000   1.0000   1.0000
     1.0000   1.0000   1.0000   1.0000   1.0000   1.0000   1.0000   1.0000
     1.0000   1.0000   1.0000   1.0000   1.0000   1.0000   1.0000   1.0000
     1.0000   1.0000   1.0000   1.0000   1.0000   1.0000   1.0000   1.0000
     1.0000   1.0000   1.0000   1.0000   1.0000   1.0000   1.0000   1.0000
     1.0000   1.0000   1.0000   1.0000   1.0000   1.0000   1.0000   1.0000
     1.0000   1.0000   1.0000   1.0000   1.0000   1.0000   1.0000   1.0000
     1.0000   1.0000   1.0000   1.0000   1.0000   1.0000   1.0000   1.0000
     1.0000   1.0000   1.0000   1.0000   1.0000   1.0000   1.0000   1.0000
     1.0000   1.0000   0.9998   0.9997   0.9997   0.9996   0.9995   0.9995
     0.9994   0.9994   0.9993   0.9992   0.9978   0.9977   0.9975   0.9974
     0.9966   0.9963   0.9961   0.9957   0.9955   0.9949   0.9917   0.9907
     0.9858   0.9835   0.9824   0.9822   0.9715   0.9632   0.9615   0.9582
     0.9414   0.9318   0.9222   0.9175   0.9165   0.9101   0.9101   0.9063
     0.9063   0.9020   0.8990   0.8914   0.8622   0.8499   0.8487   0.8449
     0.8205   0.8088   0.8071   0.8041   0.7737   0.7420   0.6531   0.6175
     0.6145   0.6140   0.6056   0.6012   0.5883   0.5816   0.5513   0.5358
     0.5301   0.5192   0.4416   0.4270   0.4176   0.4165   0.4053   0.3977
     0.2820   0.2728   0.2287   0.2260   0.2148   0.2052   0.1943   0.1694
     0.1693   0.1577   0.0965   0.0879   0.0800   0.0736   0.0601   0.0572
     0.0334   0.0323   0.0279   0.0261   0.0076   0.0065   0.0055   0.0052
     0.0004   0.0003   0.0003   0.0002   0.0002   0.0002   0.0002   0.0002
     0.0001   0.0001   0.0001   0.0001   0.0000   0.0000   0.0000   0.0000
     0.0000   0.0000   0.0000   0.0000   0.0000   0.0000   0.0000   0.0000
     0.0000   0.0000   0.0000   0.0000   0.0000   0.0000   0.0000   0.0000
     0.0000   0.0000   0.0000   0.0000   0.0000   0.0000   0.0000   0.0000
     0.0000   0.0000   0.0000   0.0000   0.0000   0.0000   0.0000   0.0000
     0.0000   0.0000   0.0000   0.0000   0.0000   0.0000   0.0000   0.0000
     0.0000   0.0000   0.0000   0.0000   0.0000   0.0000   0.0000   0.0000
     0.0000   0.0000   0.0000   0.0000   0.0000   0.0000   0.0000   0.0000
     0.0000   0.0000   0.0000   0.0000   0.0000   0.0000   0.0000   0.0000
     0.0000   0.0000   0.0000   0.0000   0.0000   0.0000   0.0000   0.0000
     0.0000   0.0000   0.0000   0.0000   0.0000   0.0000   0.0000   0.0000
     0.0000   0.0000   0.0000   0.0000   0.0000   0.0000   0.0000   0.0000
     0.0000   0.0000   0.0000   0.0000   0.0000   0.0000   0.0000   0.0000
     0.0000   0.0000   0.0000   0.0000   0.0000   0.0000   0.0000   0.0000
     0.0000   0.0000   0.0000   0.0000   0.0000   0.0000   0.0000   0.0000
     0.0000   0.0000   0.0000   0.0000   0.0000   0.0000   0.0000   0.0000
     0.0000   0.0000   0.0000   0.0000   0.0000   0.0000   0.0000   0.0000
     0.0000   0.0000   0.0000   0.0000   0.0000   0.0000   0.0000   0.0000

          k = 0.2500 0.4330 0.0000 (100652 PWs)   bands (ev):

   -69.1493 -69.1395 -69.0695 -69.0554 -69.0343 -69.0339 -69.0324 -69.0318
   -69.0189 -69.0186 -69.0185 -69.0181 -69.0164 -69.0160 -69.0131 -69.0127
   -69.0127 -69.0118 -69.0091 -69.0071 -69.0070 -69.0068 -69.0067 -69.0067
   -69.0065 -69.0064 -69.0062 -69.0047 -69.0044 -69.0043 -69.0041 -69.0014
   -68.9951 -68.9951 -68.9774 -68.9771 -68.6456 -68.6421 -68.6413 -68.6397
   -68.6393 -68.6365 -68.6365 -68.6360 -68.6360 -68.6345 -68.6344 -68.6341
   -68.6341 -68.6333 -68.6332 -68.6327 -68.6326 -68.6325 -68.6325 -68.6320
   -68.6319 -68.6319 -68.6317 -68.6314 -68.6314 -68.6311 -68.6311 -68.6308
   -68.6307 -68.6302 -68.6292 -68.6292 -68.6287 -68.6287 -68.6236 -68.6236
   -35.4825 -35.4063 -35.3481 -35.3041 -35.3035 -35.3034 -35.3029 -35.3002
   -35.2991 -35.2958 -35.2957 -35.2954 -35.2953 -35.2886 -35.2885 -35.2548
   -35.2402 -35.2367 -35.2362 -35.2359 -35.2358 -35.2354 -35.2350 -35.2311
   -35.2286 -35.2283 -35.2283 -35.2280 -35.2272 -35.2267 -35.2261 -35.2256
   -35.2252 -35.2246 -35.2194 -35.2193 -35.2183 -35.2173 -35.2166 -35.1875
   -35.1826 -35.1816 -35.1789 -35.1777 -35.1749 -35.1743 -35.1731 -35.1722
   -35.1719 -35.1716 -35.1713 -35.1709 -35.1707 -35.1704 -35.1703 -35.1694
   -35.1689 -35.1645 -35.1639 -35.1629 -35.1610 -35.1599 -35.1593 -35.1585
   -35.1581 -35.1577 -35.1550 -35.1549 -35.1547 -35.1546 -35.1373 -35.1359
   -35.1074 -35.1012 -35.0870 -35.0694 -35.0506 -35.0446 -35.0434 -35.0425
   -35.0381 -35.0366 -35.0321 -35.0316 -35.0306 -35.0280 -35.0251 -35.0225
   -35.0212 -35.0209 -35.0195 -35.0179 -35.0171 -35.0149 -35.0144 -35.0138
   -35.0136 -35.0130 -35.0124 -35.0114 -35.0092 -35.0059 -35.0048 -35.0012
   -34.9982 -34.9975 -34.9935 -34.9859 -34.8399 -34.8395 -34.8331 -34.8306
   -34.8300 -34.8298 -34.8293 -34.8267 -34.8265 -34.8260 -34.8257 -34.8253
   -34.8242 -34.8231 -34.8229 -34.8226 -34.8224 -34.8219 -34.8218 -34.8215
   -34.8215 -34.8209 -34.8205 -34.8201 -34.8199 -34.8197 -34.8192 -34.8183
   -34.8180 -34.8180 -34.8158 -34.8155 -34.8139 -34.8109 -34.8087 -34.8059
   -34.7682 -34.7671 -34.7669 -34.7655 -34.7644 -34.7636 -34.7624 -34.7617
   -34.7607 -34.7605 -34.7601 -34.7596 -34.7595 -34.7591 -34.7588 -34.7583
   -34.7571 -34.7565 -34.7562 -34.7558 -34.7552 -34.7548 -34.7547 -34.7542
   -34.7538 -34.7536 -34.7531 -34.7530 -34.7513 -34.7509 -34.7507 -34.7502
   -34.7499 -34.7493 -34.7399 -34.7391 -34.7079 -34.7008 -34.6985 -34.6980
   -34.6966 -34.6959 -34.6956 -34.6942 -34.6930 -34.6926 -34.6912 -34.6889
   -34.6882 -34.6868 -34.6840 -34.6830 -34.6830 -34.6809 -34.6800 -34.6788
   -34.6784 -34.6779 -34.6769 -34.6763 -34.6754 -34.6743 -34.6735 -34.6734
   -34.6728 -34.6726 -34.6723 -34.6717 -34.6712 -34.6707 -34.6633 -34.6631
     3.4829   3.7499   3.7981   4.4193   4.5002   4.5381   4.5953   4.6983
     4.7542   4.7593   4.7618   4.9343   5.0417   5.0647   5.2061   5.2226
     5.2888   5.3468   5.3499   5.3678   5.3704   5.5170   5.5583   5.5742
     5.5752   5.5777   5.5841   5.5974   5.6597   5.6644   5.8690   5.8711
     5.8717   5.8799   6.0410   6.0442   8.7361   9.9413   9.9779  10.1122
    10.1311  10.1549  10.2367  10.2755  10.3195  10.3227  10.3248  10.3537
    10.3689  10.4833  10.5116  10.5992  10.7087  10.7089  10.7285  10.7356
    10.7377  10.7380  10.7510  10.7718  10.8119  10.8494  10.8958  10.9001
    10.9828  10.9843  10.9863  11.1120  11.1141  11.3068  11.4735  11.5311
    11.5463  11.5475  11.5541  11.5662  11.5868  11.6033  11.8006  11.8106
    11.8166  11.8856  11.9922  12.0090  12.0099  12.0109  12.0186  12.0740
    12.0963  12.1020  12.1370  12.2397  12.2704  12.2999  12.3175  12.3751
    12.3884  12.3937  12.3971  12.4281  12.4286  12.5688  12.5995  12.6197
    12.6198  12.6436  12.7081  12.7112  12.7460  12.7862  12.7893  12.8012
    12.8421  12.8434  12.9051  12.9166  12.9178  12.9369  12.9592  12.9608
    12.9632  12.9677  12.9749  12.9928  13.0510  13.0522  13.1760  13.1839
    13.1866  13.1934  13.2703  13.3531  13.3547  13.3600  13.3636  13.4218
    13.4700  13.4778  13.4934  13.5441  13.5983  13.6934  14.0713  14.0816
    14.1065  14.3536  14.3543  14.3806  14.5489  14.5913  14.6302  14.6515
    14.6627  14.6660  14.6699  14.6767  14.6807  14.6854  14.7121  14.7266
    14.7277  14.7842  14.7871  14.7967  14.8059  14.8065  14.8119  14.8135
    14.8205  14.8253  14.8323  14.8513  14.8532  14.8560  14.8609  14.8671
    14.8702  14.9098  14.9151  14.9294  14.9315  14.9342  14.9623  14.9645
    14.9677  14.9714  15.0851  15.0922  15.1098  15.1255  15.1274  15.1288
    15.1500  15.1842  15.1991  15.2249  15.2260  15.2267  15.2303  15.2382
    15.2394  15.2550  15.2914  15.3084  15.3551  15.3633  15.3871  15.3889
    15.3963  15.3967  15.3969  15.4308  15.4378  15.4526  15.4578  15.5215
    15.5217  15.5261  15.5312  15.5776  15.5886  15.5919  15.5967  15.6028
    15.8903  15.9287  15.9493  15.9657  15.9724  15.9773  15.9777  15.9816
    16.0060  16.0085  16.0131  16.0173  16.0176  16.0202  16.0208  16.0266
    16.0280  16.0466  16.0537  16.0597  16.0674  16.0686  16.0725  16.0776
    16.0845  16.0893  16.1020  16.1026  16.1770  16.1812  16.1859  16.2004
    16.2830  16.3002  16.3653  16.3761  16.3772  16.3788  16.4088  16.4243
    16.4999  16.5023  16.5317  16.5354  16.5475  16.5502  16.5542  16.5569
    16.6049  16.6145  16.6229  16.6640  16.6689  16.6728  16.6743  16.6756
    16.6911  16.7175  16.7328  16.7340  16.7665  16.7681  16.7743  16.7861
    16.7889  16.7962  16.7987  16.8309  16.8333  16.8596  16.8712  16.8850
    16.8865  16.9433  16.9541  16.9621  16.9953  16.9959  17.0030  17.0220
    17.0232  17.0235  17.0405  17.0463  17.0468  17.0524  17.0559  17.0560
    17.0573  17.0617  17.0802  17.0805  17.0972  17.1582  17.1683  17.1789
    17.1866  17.1902  17.1956  17.2123  17.2180  17.2247  17.2307  17.2392
    17.2475  17.2477  17.2500  17.2723  17.2863  17.2950  17.3114  17.3169
    17.3249  17.3378  17.3547  17.3731  17.3829  17.3857  17.4559  17.4566
    17.4579  17.4627  17.4674  17.4822  17.4911  17.5188  17.5189  17.5195
    17.5287  17.5306  17.5480  17.5509  17.6375  17.7258  17.8119  17.8263
    17.8325  17.8326  17.8403  17.8412  17.8461  17.8841  17.8882  17.9014
    17.9055  17.9077  17.9262  17.9313  17.9349  17.9354  17.9393  17.9825
    17.9843  17.9994  18.0023  18.0131  18.0329  18.0343  18.0441  18.0481
    18.0581  18.0610  18.0677  18.0807  18.0949  18.1088  18.1160  18.1212
    18.1216  18.1270  18.1339  18.1348  18.1366  18.1502  18.1559  18.1598
    18.1656  18.1679  18.1760  18.1765  18.1767  18.1821  18.2150  18.2166
    18.2176  18.2193  18.2338  18.2425  18.2838  18.2862  18.2902  18.2906
    18.2948  18.2958  18.3025  18.3142  18.3175  18.3232  18.3589  18.3665
    18.3677  18.3715  18.3722  18.3791  18.3827  18.3888  18.4554  18.4684
    18.4710  18.6000  18.7740  18.7915  18.8984  18.9036  18.9170  18.9597
    19.1090  19.1287  19.1500  19.1675  19.1768  19.1799  19.2665  19.2685
    19.2748  19.2973  19.3003  19.3023  19.3055  19.3219  19.3313  19.3933
    19.4134  19.4966  19.4994  19.5752  19.5810  19.5849  19.5971  19.6095
    19.6209  19.7158  19.7339  19.7373  19.7388  19.7468  19.9040  19.9273
    19.9589  20.0865  20.1050  20.1131  20.1388  20.1501  20.1950  20.1994
    20.2008  20.3091  20.3144  20.3242  20.3640  20.3952  20.3974  20.3994
    20.4106  20.4140  20.4174  20.4930  20.5114  20.5204  20.5756  20.6114
    20.6218  20.6356  20.6655  20.9439  20.9815  20.9910  21.0403  21.0630
    21.2760  21.4705  21.5159  21.6253  21.6376  21.6426  21.6684  21.6996

     occupation numbers 
     1.0000   1.0000   1.0000   1.0000   1.0000   1.0000   1.0000   1.0000
     1.0000   1.0000   1.0000   1.0000   1.0000   1.0000   1.0000   1.0000
     1.0000   1.0000   1.0000   1.0000   1.0000   1.0000   1.0000   1.0000
     1.0000   1.0000   1.0000   1.0000   1.0000   1.0000   1.0000   1.0000
     1.0000   1.0000   1.0000   1.0000   1.0000   1.0000   1.0000   1.0000
     1.0000   1.0000   1.0000   1.0000   1.0000   1.0000   1.0000   1.0000
     1.0000   1.0000   1.0000   1.0000   1.0000   1.0000   1.0000   1.0000
     1.0000   1.0000   1.0000   1.0000   1.0000   1.0000   1.0000   1.0000
     1.0000   1.0000   1.0000   1.0000   1.0000   1.0000   1.0000   1.0000
     1.0000   1.0000   1.0000   1.0000   1.0000   1.0000   1.0000   1.0000
     1.0000   1.0000   1.0000   1.0000   1.0000   1.0000   1.0000   1.0000
     1.0000   1.0000   1.0000   1.0000   1.0000   1.0000   1.0000   1.0000
     1.0000   1.0000   1.0000   1.0000   1.0000   1.0000   1.0000   1.0000
     1.0000   1.0000   1.0000   1.0000   1.0000   1.0000   1.0000   1.0000
     1.0000   1.0000   1.0000   1.0000   1.0000   1.0000   1.0000   1.0000
     1.0000   1.0000   1.0000   1.0000   1.0000   1.0000   1.0000   1.0000
     1.0000   1.0000   1.0000   1.0000   1.0000   1.0000   1.0000   1.0000
     1.0000   1.0000   1.0000   1.0000   1.0000   1.0000   1.0000   1.0000
     1.0000   1.0000   1.0000   1.0000   1.0000   1.0000   1.0000   1.0000
     1.0000   1.0000   1.0000   1.0000   1.0000   1.0000   1.0000   1.0000
     1.0000   1.0000   1.0000   1.0000   1.0000   1.0000   1.0000   1.0000
     1.0000   1.0000   1.0000   1.0000   1.0000   1.0000   1.0000   1.0000
     1.0000   1.0000   1.0000   1.0000   1.0000   1.0000   1.0000   1.0000
     1.0000   1.0000   1.0000   1.0000   1.0000   1.0000   1.0000   1.0000
     1.0000   1.0000   1.0000   1.0000   1.0000   1.0000   1.0000   1.0000
     1.0000   1.0000   1.0000   1.0000   1.0000   1.0000   1.0000   1.0000
     1.0000   1.0000   1.0000   1.0000   1.0000   1.0000   1.0000   1.0000
     1.0000   1.0000   1.0000   1.0000   1.0000   1.0000   1.0000   1.0000
     1.0000   1.0000   1.0000   1.0000   1.0000   1.0000   1.0000   1.0000
     1.0000   1.0000   1.0000   1.0000   1.0000   1.0000   1.0000   1.0000
     1.0000   1.0000   1.0000   1.0000   1.0000   1.0000   1.0000   1.0000
     1.0000   1.0000   1.0000   1.0000   1.0000   1.0000   1.0000   1.0000
     1.0000   1.0000   1.0000   1.0000   1.0000   1.0000   1.0000   1.0000
     1.0000   1.0000   1.0000   1.0000   1.0000   1.0000   1.0000   1.0000
     1.0000   1.0000   1.0000   1.0000   1.0000   1.0000   1.0000   1.0000
     1.0000   1.0000   1.0000   1.0000   1.0000   1.0000   1.0000   1.0000
     1.0000   1.0000   1.0000   1.0000   1.0000   1.0000   1.0000   1.0000
     1.0000   1.0000   1.0000   1.0000   1.0000   1.0000   1.0000   1.0000
     1.0000   1.0000   1.0000   1.0000   1.0000   1.0000   1.0000   1.0000
     1.0000   1.0000   1.0000   1.0000   1.0000   1.0000   1.0000   1.0000
     1.0000   1.0000   1.0000   1.0000   1.0000   1.0000   1.0000   1.0000
     1.0000   1.0000   1.0000   1.0000   1.0000   1.0000   1.0000   1.0000
     1.0000   1.0000   1.0000   1.0000   1.0000   1.0000   1.0000   1.0000
     1.0000   1.0000   1.0000   1.0000   1.0000   1.0000   1.0000   1.0000
     1.0000   1.0000   1.0000   1.0000   1.0000   1.0000   1.0000   1.0000
     1.0000   1.0000   1.0000   1.0000   1.0000   1.0000   1.0000   1.0000
     1.0000   1.0000   1.0000   1.0000   1.0000   1.0000   1.0000   1.0000
     1.0000   1.0000   1.0000   1.0000   1.0000   1.0000   1.0000   1.0000
     1.0000   1.0000   1.0000   1.0000   1.0000   1.0000   1.0000   1.0000
     1.0000   1.0000   1.0000   1.0000   1.0000   1.0000   1.0000   1.0000
     1.0000   1.0000   1.0000   1.0000   1.0000   1.0000   1.0000   1.0000
     1.0000   1.0000   1.0000   1.0000   1.0000   1.0000   1.0000   1.0000
     1.0000   1.0000   1.0000   1.0000   1.0000   1.0000   1.0000   1.0000
     1.0000   1.0000   1.0000   1.0000   1.0000   1.0000   1.0000   1.0000
     1.0000   1.0000   1.0000   1.0000   1.0000   1.0000   1.0000   1.0000
     1.0000   1.0000   1.0000   1.0000   1.0000   1.0000   1.0000   1.0000
     1.0000   1.0000   1.0000   1.0000   1.0000   1.0000   1.0000   1.0000
     1.0000   1.0000   1.0000   1.0000   1.0000   1.0000   1.0000   1.0000
     1.0000   1.0000   1.0000   1.0000   1.0000   1.0000   1.0000   1.0000
     1.0000   1.0000   1.0000   1.0000   1.0000   1.0000   1.0000   1.0000
     1.0000   1.0000   1.0000   1.0000   1.0000   1.0000   1.0000   1.0000
     1.0000   1.0000   1.0000   1.0000   1.0000   1.0000   1.0000   1.0000
     1.0000   1.0000   1.0000   1.0000   1.0000   1.0000   1.0000   1.0000
     1.0000   1.0000   1.0000   1.0000   1.0000   1.0000   1.0000   1.0000
     1.0000   1.0000   1.0000   1.0000   1.0000   1.0000   1.0000   1.0000
     1.0000   1.0000   1.0000   1.0000   1.0000   1.0000   1.0000   1.0000
     1.0000   1.0000   1.0000   1.0000   1.0000   1.0000   1.0000   1.0000
     1.0000   1.0000   1.0000   1.0000   1.0000   1.0000   1.0000   1.0000
     1.0000   1.0000   1.0000   1.0000   1.0000   1.0000   1.0000   1.0000
     0.9999   0.9999   0.9998   0.9998   0.9997   0.9997   0.9997   0.9997
     0.9992   0.9991   0.9989   0.9978   0.9976   0.9975   0.9974   0.9974
     0.9966   0.9949   0.9936   0.9935   0.9897   0.9895   0.9886   0.9866
     0.9861   0.9847   0.9842   0.9762   0.9755   0.9666   0.9618   0.9555
     0.9547   0.9189   0.9101   0.9032   0.8702   0.8695   0.8615   0.8385
     0.8369   0.8367   0.8138   0.8057   0.8049   0.7968   0.7917   0.7915
     0.7896   0.7828   0.7536   0.7531   0.7249   0.6106   0.5902   0.5686
     0.5529   0.5454   0.5343   0.4998   0.4880   0.4740   0.4617   0.4441
     0.4271   0.4268   0.4220   0.3773   0.3500   0.3334   0.3030   0.2932
     0.2790   0.2569   0.2294   0.2015   0.1875   0.1835   0.1026   0.1020
     0.1007   0.0964   0.0923   0.0802   0.0736   0.0555   0.0554   0.0551
     0.0500   0.0490   0.0405   0.0392   0.0135   0.0038   0.0009   0.0007
     0.0006   0.0006   0.0005   0.0005   0.0005   0.0002   0.0002   0.0002
     0.0002   0.0002   0.0001   0.0001   0.0001   0.0001   0.0001   0.0000
     0.0000   0.0000   0.0000   0.0000   0.0000   0.0000   0.0000   0.0000
     0.0000   0.0000   0.0000   0.0000   0.0000   0.0000   0.0000   0.0000
     0.0000   0.0000   0.0000   0.0000   0.0000   0.0000   0.0000   0.0000
     0.0000   0.0000   0.0000   0.0000   0.0000   0.0000   0.0000   0.0000
     0.0000   0.0000   0.0000   0.0000   0.0000   0.0000   0.0000   0.0000
     0.0000   0.0000   0.0000   0.0000   0.0000   0.0000   0.0000   0.0000
     0.0000   0.0000   0.0000   0.0000   0.0000   0.0000   0.0000   0.0000
     0.0000   0.0000   0.0000   0.0000   0.0000   0.0000   0.0000   0.0000
     0.0000   0.0000   0.0000   0.0000   0.0000   0.0000   0.0000   0.0000
     0.0000   0.0000   0.0000   0.0000   0.0000   0.0000   0.0000   0.0000
     0.0000   0.0000   0.0000   0.0000   0.0000   0.0000   0.0000   0.0000
     0.0000   0.0000   0.0000   0.0000   0.0000   0.0000   0.0000   0.0000
     0.0000   0.0000   0.0000   0.0000   0.0000   0.0000   0.0000   0.0000
     0.0000   0.0000   0.0000   0.0000   0.0000   0.0000   0.0000   0.0000
     0.0000   0.0000   0.0000   0.0000   0.0000   0.0000   0.0000   0.0000
     0.0000   0.0000   0.0000   0.0000   0.0000   0.0000   0.0000   0.0000
     0.0000   0.0000   0.0000   0.0000   0.0000   0.0000   0.0000   0.0000

          k = 0.2500 0.4330 0.2850 (100562 PWs)   bands (ev):

   -69.1493 -69.1395 -69.0695 -69.0554 -69.0343 -69.0339 -69.0324 -69.0318
   -69.0189 -69.0186 -69.0185 -69.0181 -69.0164 -69.0160 -69.0131 -69.0127
   -69.0127 -69.0118 -69.0091 -69.0071 -69.0070 -69.0068 -69.0067 -69.0067
   -69.0065 -69.0064 -69.0062 -69.0047 -69.0044 -69.0043 -69.0041 -69.0014
   -68.9951 -68.9951 -68.9774 -68.9771 -68.6456 -68.6421 -68.6413 -68.6397
   -68.6393 -68.6365 -68.6365 -68.6360 -68.6360 -68.6345 -68.6344 -68.6341
   -68.6341 -68.6333 -68.6332 -68.6327 -68.6326 -68.6325 -68.6325 -68.6320
   -68.6319 -68.6319 -68.6317 -68.6314 -68.6314 -68.6311 -68.6311 -68.6308
   -68.6307 -68.6302 -68.6292 -68.6292 -68.6287 -68.6287 -68.6236 -68.6236
   -35.4825 -35.4063 -35.3481 -35.3041 -35.3036 -35.3034 -35.3029 -35.3002
   -35.2991 -35.2958 -35.2957 -35.2955 -35.2953 -35.2886 -35.2885 -35.2548
   -35.2402 -35.2370 -35.2361 -35.2359 -35.2357 -35.2353 -35.2350 -35.2311
   -35.2288 -35.2285 -35.2279 -35.2278 -35.2272 -35.2269 -35.2260 -35.2254
   -35.2252 -35.2247 -35.2196 -35.2191 -35.2181 -35.2174 -35.2166 -35.1875
   -35.1827 -35.1815 -35.1790 -35.1776 -35.1749 -35.1743 -35.1730 -35.1722
   -35.1718 -35.1715 -35.1712 -35.1709 -35.1706 -35.1705 -35.1702 -35.1695
   -35.1691 -35.1647 -35.1638 -35.1630 -35.1609 -35.1598 -35.1593 -35.1584
   -35.1578 -35.1574 -35.1560 -35.1557 -35.1542 -35.1538 -35.1374 -35.1358
   -35.1074 -35.1013 -35.0871 -35.0697 -35.0506 -35.0452 -35.0444 -35.0427
   -35.0379 -35.0360 -35.0325 -35.0305 -35.0300 -35.0273 -35.0251 -35.0244
   -35.0210 -35.0206 -35.0181 -35.0176 -35.0169 -35.0156 -35.0136 -35.0133
   -35.0127 -35.0125 -35.0117 -35.0112 -35.0086 -35.0067 -35.0057 -35.0022
   -34.9988 -34.9983 -34.9932 -34.9862 -34.8412 -34.8383 -34.8332 -34.8325
   -34.8312 -34.8307 -34.8273 -34.8271 -34.8261 -34.8258 -34.8257 -34.8249
   -34.8235 -34.8233 -34.8226 -34.8224 -34.8221 -34.8219 -34.8216 -34.8213
   -34.8210 -34.8205 -34.8201 -34.8199 -34.8199 -34.8191 -34.8185 -34.8184
   -34.8180 -34.8170 -34.8154 -34.8151 -34.8144 -34.8121 -34.8101 -34.8074
   -34.7667 -34.7664 -34.7657 -34.7646 -34.7636 -34.7633 -34.7618 -34.7615
   -34.7612 -34.7609 -34.7598 -34.7594 -34.7587 -34.7585 -34.7580 -34.7579
   -34.7572 -34.7568 -34.7566 -34.7563 -34.7562 -34.7557 -34.7554 -34.7552
   -34.7550 -34.7545 -34.7544 -34.7542 -34.7539 -34.7523 -34.7516 -34.7483
   -34.7474 -34.7466 -34.7405 -34.7383 -34.7079 -34.7008 -34.6987 -34.6976
   -34.6967 -34.6959 -34.6956 -34.6942 -34.6930 -34.6926 -34.6912 -34.6890
   -34.6881 -34.6868 -34.6841 -34.6829 -34.6829 -34.6807 -34.6800 -34.6794
   -34.6780 -34.6779 -34.6769 -34.6763 -34.6754 -34.6743 -34.6735 -34.6733
   -34.6728 -34.6727 -34.6722 -34.6717 -34.6713 -34.6706 -34.6634 -34.6630
     3.5527   3.8147   3.8657   4.0955   4.3275   4.3735   4.5113   4.6520
     4.9009   4.9559   4.9898   5.0624   5.0850   5.1091   5.1303   5.1597
     5.3194   5.3358   5.3894   5.4065   5.4101   5.4135   5.4722   5.5576
     5.5926   5.6121   5.6320   5.6363   5.6435   5.6877   5.6932   5.7562
     5.8815   6.0200   6.0242   6.1711   8.7272   9.8580  10.0041  10.0344
    10.0749  10.1012  10.1355  10.2038  10.2469  10.2639  10.2815  10.3383
    10.3453  10.3493  10.3761  10.3977  10.4190  10.4953  10.5373  10.6068
    10.6315  10.7144  10.7242  10.7918  10.7963  10.8240  10.9425  11.0345
    11.0598  11.2770  11.3471  11.3654  11.4023  11.5030  11.6121  11.6141
    11.6363  11.6407  11.6490  11.6875  11.7172  11.7280  11.8231  11.8572
    11.8825  11.9397  11.9863  11.9924  12.1071  12.1278  12.1909  12.2295
    12.2487  12.2534  12.2610  12.2765  12.2848  12.2964  12.3919  12.4038
    12.4048  12.4376  12.4629  12.4637  12.4781  12.4814  12.4859  12.5102
    12.5324  12.5619  12.5930  12.6099  12.6214  12.6698  12.7690  12.7846
    12.8442  12.8457  12.8698  12.8738  12.8808  12.9180  12.9211  12.9517
    13.0042  13.0178  13.0578  13.0601  13.0725  13.1215  13.1256  13.1578
    13.1914  13.2063  13.2119  13.3021  13.3095  13.3255  13.3663  13.3928
    13.4021  13.4076  13.4182  13.4272  13.4895  13.5668  13.6384  13.6626
    13.6920  14.5630  14.5903  14.5986  14.6245  14.6566  14.6571  14.6715
    14.6766  14.6843  14.6864  14.6903  14.6962  14.6998  14.7012  14.7133
    14.7339  14.7566  14.7611  14.7743  14.7878  14.7920  14.8023  14.8032
    14.8086  14.8115  14.8321  14.8391  14.8414  14.8482  14.8542  14.8680
    14.9191  14.9265  14.9453  14.9462  14.9485  14.9598  14.9613  14.9629
    14.9881  15.0010  15.0731  15.0941  15.1094  15.1243  15.1400  15.1499
    15.1595  15.1758  15.1846  15.1869  15.1942  15.2022  15.2030  15.2142
    15.2259  15.2338  15.2423  15.2632  15.2750  15.2814  15.3077  15.3404
    15.3501  15.3530  15.3590  15.4108  15.4128  15.4431  15.4701  15.4716
    15.5045  15.5520  15.5697  15.5726  15.5950  15.6596  15.6635  15.7251
    15.8224  15.8655  15.8724  15.9024  15.9088  15.9400  15.9679  15.9821
    15.9935  16.0045  16.0094  16.0216  16.0276  16.0327  16.0456  16.0649
    16.0705  16.0791  16.0883  16.1061  16.1130  16.1167  16.1211  16.1625
    16.1949  16.1955  16.2076  16.2233  16.2464  16.2748  16.3136  16.3232
    16.3248  16.3304  16.3772  16.3795  16.3897  16.3922  16.3951  16.4356
    16.4483  16.4868  16.4915  16.5166  16.5182  16.5697  16.5846  16.5948
    16.5990  16.6043  16.6109  16.6188  16.6445  16.6465  16.6586  16.6620
    16.6982  16.7039  16.7375  16.7426  16.7535  16.7618  16.7721  16.7870
    16.7994  16.8011  16.8110  16.8197  16.8285  16.8559  16.8887  16.9218
    16.9233  16.9330  16.9448  16.9517  16.9715  16.9727  16.9825  16.9923
    16.9934  17.0025  17.0072  17.0135  17.0189  17.0210  17.0280  17.0292
    17.0331  17.0438  17.0450  17.0591  17.0776  17.1059  17.1334  17.1410
    17.1567  17.1572  17.1790  17.2029  17.2065  17.2131  17.2181  17.2234
    17.2370  17.2457  17.2491  17.2642  17.2797  17.2815  17.2970  17.3017
    17.3090  17.3310  17.3406  17.3736  17.3864  17.3932  17.3949  17.3996
    17.4361  17.4523  17.4693  17.4860  17.4929  17.4976  17.4999  17.5014
    17.5024  17.5440  17.5736  17.5863  17.6376  17.7216  17.7271  17.7317
    17.8610  17.8740  17.8744  17.8895  17.8897  17.8928  17.9092  17.9175
    17.9348  17.9358  17.9377  17.9483  17.9506  17.9599  17.9645  17.9721
    17.9774  18.0014  18.0113  18.0231  18.0294  18.0389  18.0393  18.0475
    18.0518  18.0607  18.0614  18.0791  18.0798  18.0878  18.0963  18.1012
    18.1123  18.1178  18.1298  18.1397  18.1417  18.1445  18.1574  18.1927
    18.2030  18.2056  18.2120  18.2238  18.2249  18.2276  18.2327  18.2388
    18.2436  18.2513  18.2556  18.2605  18.2694  18.2749  18.2975  18.2976
    18.3189  18.3218  18.3334  18.3351  18.3424  18.3644  18.3689  18.3716
    18.3770  18.3819  18.3890  18.3912  18.4010  18.4159  18.4321  18.4528
    18.5175  18.6405  18.7060  18.8170  18.8206  18.8411  18.8588  18.9495
    18.9683  18.9760  19.0491  19.1811  19.1890  19.2078  19.2250  19.2463
    19.2565  19.2626  19.3200  19.3381  19.3399  19.3830  19.4544  19.4655
    19.4905  19.5282  19.5437  19.5656  19.5691  19.6128  19.6152  19.6321
    19.6506  19.6672  19.6846  19.7344  19.7418  19.9400  19.9499  19.9501
    19.9669  20.0291  20.0813  20.0877  20.0994  20.1119  20.1223  20.1661
    20.1684  20.2104  20.2678  20.2877  20.2957  20.3080  20.3197  20.3310
    20.3608  20.3617  20.3801  20.4382  20.4916  20.5387  20.5413  20.5462
    20.6029  20.6269  20.6644  20.6776  20.6921  20.7973  20.9511  20.9887
    21.0867  21.3919  21.4948  21.5790  21.6174  21.8352  21.9824  21.9841

     occupation numbers 
     1.0000   1.0000   1.0000   1.0000   1.0000   1.0000   1.0000   1.0000
     1.0000   1.0000   1.0000   1.0000   1.0000   1.0000   1.0000   1.0000
     1.0000   1.0000   1.0000   1.0000   1.0000   1.0000   1.0000   1.0000
     1.0000   1.0000   1.0000   1.0000   1.0000   1.0000   1.0000   1.0000
     1.0000   1.0000   1.0000   1.0000   1.0000   1.0000   1.0000   1.0000
     1.0000   1.0000   1.0000   1.0000   1.0000   1.0000   1.0000   1.0000
     1.0000   1.0000   1.0000   1.0000   1.0000   1.0000   1.0000   1.0000
     1.0000   1.0000   1.0000   1.0000   1.0000   1.0000   1.0000   1.0000
     1.0000   1.0000   1.0000   1.0000   1.0000   1.0000   1.0000   1.0000
     1.0000   1.0000   1.0000   1.0000   1.0000   1.0000   1.0000   1.0000
     1.0000   1.0000   1.0000   1.0000   1.0000   1.0000   1.0000   1.0000
     1.0000   1.0000   1.0000   1.0000   1.0000   1.0000   1.0000   1.0000
     1.0000   1.0000   1.0000   1.0000   1.0000   1.0000   1.0000   1.0000
     1.0000   1.0000   1.0000   1.0000   1.0000   1.0000   1.0000   1.0000
     1.0000   1.0000   1.0000   1.0000   1.0000   1.0000   1.0000   1.0000
     1.0000   1.0000   1.0000   1.0000   1.0000   1.0000   1.0000   1.0000
     1.0000   1.0000   1.0000   1.0000   1.0000   1.0000   1.0000   1.0000
     1.0000   1.0000   1.0000   1.0000   1.0000   1.0000   1.0000   1.0000
     1.0000   1.0000   1.0000   1.0000   1.0000   1.0000   1.0000   1.0000
     1.0000   1.0000   1.0000   1.0000   1.0000   1.0000   1.0000   1.0000
     1.0000   1.0000   1.0000   1.0000   1.0000   1.0000   1.0000   1.0000
     1.0000   1.0000   1.0000   1.0000   1.0000   1.0000   1.0000   1.0000
     1.0000   1.0000   1.0000   1.0000   1.0000   1.0000   1.0000   1.0000
     1.0000   1.0000   1.0000   1.0000   1.0000   1.0000   1.0000   1.0000
     1.0000   1.0000   1.0000   1.0000   1.0000   1.0000   1.0000   1.0000
     1.0000   1.0000   1.0000   1.0000   1.0000   1.0000   1.0000   1.0000
     1.0000   1.0000   1.0000   1.0000   1.0000   1.0000   1.0000   1.0000
     1.0000   1.0000   1.0000   1.0000   1.0000   1.0000   1.0000   1.0000
     1.0000   1.0000   1.0000   1.0000   1.0000   1.0000   1.0000   1.0000
     1.0000   1.0000   1.0000   1.0000   1.0000   1.0000   1.0000   1.0000
     1.0000   1.0000   1.0000   1.0000   1.0000   1.0000   1.0000   1.0000
     1.0000   1.0000   1.0000   1.0000   1.0000   1.0000   1.0000   1.0000
     1.0000   1.0000   1.0000   1.0000   1.0000   1.0000   1.0000   1.0000
     1.0000   1.0000   1.0000   1.0000   1.0000   1.0000   1.0000   1.0000
     1.0000   1.0000   1.0000   1.0000   1.0000   1.0000   1.0000   1.0000
     1.0000   1.0000   1.0000   1.0000   1.0000   1.0000   1.0000   1.0000
     1.0000   1.0000   1.0000   1.0000   1.0000   1.0000   1.0000   1.0000
     1.0000   1.0000   1.0000   1.0000   1.0000   1.0000   1.0000   1.0000
     1.0000   1.0000   1.0000   1.0000   1.0000   1.0000   1.0000   1.0000
     1.0000   1.0000   1.0000   1.0000   1.0000   1.0000   1.0000   1.0000
     1.0000   1.0000   1.0000   1.0000   1.0000   1.0000   1.0000   1.0000
     1.0000   1.0000   1.0000   1.0000   1.0000   1.0000   1.0000   1.0000
     1.0000   1.0000   1.0000   1.0000   1.0000   1.0000   1.0000   1.0000
     1.0000   1.0000   1.0000   1.0000   1.0000   1.0000   1.0000   1.0000
     1.0000   1.0000   1.0000   1.0000   1.0000   1.0000   1.0000   1.0000
     1.0000   1.0000   1.0000   1.0000   1.0000   1.0000   1.0000   1.0000
     1.0000   1.0000   1.0000   1.0000   1.0000   1.0000   1.0000   1.0000
     1.0000   1.0000   1.0000   1.0000   1.0000   1.0000   1.0000   1.0000
     1.0000   1.0000   1.0000   1.0000   1.0000   1.0000   1.0000   1.0000
     1.0000   1.0000   1.0000   1.0000   1.0000   1.0000   1.0000   1.0000
     1.0000   1.0000   1.0000   1.0000   1.0000   1.0000   1.0000   1.0000
     1.0000   1.0000   1.0000   1.0000   1.0000   1.0000   1.0000   1.0000
     1.0000   1.0000   1.0000   1.0000   1.0000   1.0000   1.0000   1.0000
     1.0000   1.0000   1.0000   1.0000   1.0000   1.0000   1.0000   1.0000
     1.0000   1.0000   1.0000   1.0000   1.0000   1.0000   1.0000   1.0000
     1.0000   1.0000   1.0000   1.0000   1.0000   1.0000   1.0000   1.0000
     1.0000   1.0000   1.0000   1.0000   1.0000   1.0000   1.0000   1.0000
     1.0000   1.0000   1.0000   1.0000   1.0000   1.0000   1.0000   1.0000
     1.0000   1.0000   1.0000   1.0000   1.0000   1.0000   1.0000   1.0000
     1.0000   1.0000   1.0000   1.0000   1.0000   1.0000   1.0000   1.0000
     1.0000   1.0000   1.0000   1.0000   1.0000   1.0000   1.0000   1.0000
     1.0000   1.0000   1.0000   1.0000   1.0000   1.0000   1.0000   1.0000
     1.0000   1.0000   1.0000   1.0000   1.0000   1.0000   1.0000   1.0000
     1.0000   1.0000   1.0000   1.0000   1.0000   1.0000   1.0000   1.0000
     1.0000   1.0000   1.0000   1.0000   1.0000   1.0000   1.0000   1.0000
     1.0000   1.0000   1.0000   1.0000   1.0000   1.0000   1.0000   1.0000
     1.0000   1.0000   1.0000   1.0000   1.0000   1.0000   1.0000   1.0000
     1.0000   1.0000   1.0000   1.0000   1.0000   1.0000   1.0000   1.0000
     1.0000   1.0000   1.0000   1.0000   1.0000   1.0000   1.0000   1.0000
     1.0000   0.9999   0.9999   0.9998   0.9998   0.9996   0.9994   0.9993
     0.9993   0.9992   0.9991   0.9990   0.9984   0.9984   0.9980   0.9979
     0.9962   0.9959   0.9932   0.9927   0.9914   0.9904   0.9889   0.9864
     0.9840   0.9837   0.9815   0.9793   0.9769   0.9680   0.9536   0.9343
     0.9334   0.9266   0.9177   0.9121   0.8945   0.8933   0.8837   0.8734
     0.8722   0.8621   0.8566   0.8491   0.8424   0.8398   0.8307   0.8292
     0.8240   0.8092   0.8076   0.7868   0.7578   0.7096   0.6588   0.6442
     0.6135   0.6125   0.5684   0.5193   0.5118   0.4980   0.4877   0.4766
     0.4486   0.4308   0.4238   0.3935   0.3628   0.3593   0.3297   0.3209
     0.3074   0.2685   0.2523   0.2008   0.1826   0.1734   0.1711   0.1651
     0.1222   0.1060   0.0907   0.0774   0.0723   0.0690   0.0674   0.0664
     0.0657   0.0423   0.0302   0.0259   0.0135   0.0041   0.0037   0.0035
     0.0004   0.0003   0.0003   0.0002   0.0002   0.0002   0.0001   0.0001
     0.0001   0.0001   0.0001   0.0001   0.0001   0.0001   0.0000   0.0000
     0.0000   0.0000   0.0000   0.0000   0.0000   0.0000   0.0000   0.0000
     0.0000   0.0000   0.0000   0.0000   0.0000   0.0000   0.0000   0.0000
     0.0000   0.0000   0.0000   0.0000   0.0000   0.0000   0.0000   0.0000
     0.0000   0.0000   0.0000   0.0000   0.0000   0.0000   0.0000   0.0000
     0.0000   0.0000   0.0000   0.0000   0.0000   0.0000   0.0000   0.0000
     0.0000   0.0000   0.0000   0.0000   0.0000   0.0000   0.0000   0.0000
     0.0000   0.0000   0.0000   0.0000   0.0000   0.0000   0.0000   0.0000
     0.0000   0.0000   0.0000   0.0000   0.0000   0.0000   0.0000   0.0000
     0.0000   0.0000   0.0000   0.0000   0.0000   0.0000   0.0000   0.0000
     0.0000   0.0000   0.0000   0.0000   0.0000   0.0000   0.0000   0.0000
     0.0000   0.0000   0.0000   0.0000   0.0000   0.0000   0.0000   0.0000
     0.0000   0.0000   0.0000   0.0000   0.0000   0.0000   0.0000   0.0000
     0.0000   0.0000   0.0000   0.0000   0.0000   0.0000   0.0000   0.0000
     0.0000   0.0000   0.0000   0.0000   0.0000   0.0000   0.0000   0.0000
     0.0000   0.0000   0.0000   0.0000   0.0000   0.0000   0.0000   0.0000
     0.0000   0.0000   0.0000   0.0000   0.0000   0.0000   0.0000   0.0000
     0.0000   0.0000   0.0000   0.0000   0.0000   0.0000   0.0000   0.0000

          k = 0.2500 0.4330-0.5700 (100580 PWs)   bands (ev):

   -69.1493 -69.1395 -69.0695 -69.0554 -69.0343 -69.0339 -69.0324 -69.0318
   -69.0189 -69.0186 -69.0185 -69.0181 -69.0163 -69.0160 -69.0131 -69.0127
   -69.0127 -69.0118 -69.0091 -69.0071 -69.0070 -69.0068 -69.0067 -69.0067
   -69.0065 -69.0064 -69.0062 -69.0047 -69.0044 -69.0044 -69.0041 -69.0014
   -68.9951 -68.9951 -68.9774 -68.9771 -68.6456 -68.6421 -68.6413 -68.6397
   -68.6393 -68.6365 -68.6365 -68.6360 -68.6360 -68.6345 -68.6344 -68.6341
   -68.6341 -68.6333 -68.6332 -68.6327 -68.6326 -68.6325 -68.6325 -68.6320
   -68.6319 -68.6319 -68.6317 -68.6314 -68.6314 -68.6311 -68.6311 -68.6308
   -68.6307 -68.6302 -68.6292 -68.6292 -68.6287 -68.6287 -68.6236 -68.6236
   -35.4825 -35.4063 -35.3481 -35.3039 -35.3037 -35.3034 -35.3029 -35.3002
   -35.2991 -35.2959 -35.2956 -35.2955 -35.2953 -35.2886 -35.2886 -35.2548
   -35.2402 -35.2373 -35.2363 -35.2358 -35.2355 -35.2352 -35.2350 -35.2311
   -35.2288 -35.2286 -35.2276 -35.2276 -35.2272 -35.2272 -35.2260 -35.2253
   -35.2250 -35.2249 -35.2198 -35.2191 -35.2178 -35.2177 -35.2166 -35.1875
   -35.1827 -35.1814 -35.1790 -35.1775 -35.1749 -35.1743 -35.1730 -35.1721
   -35.1716 -35.1713 -35.1712 -35.1709 -35.1708 -35.1704 -35.1698 -35.1697
   -35.1695 -35.1649 -35.1637 -35.1631 -35.1609 -35.1596 -35.1596 -35.1583
   -35.1571 -35.1570 -35.1568 -35.1567 -35.1539 -35.1535 -35.1375 -35.1357
   -35.1074 -35.1013 -35.0871 -35.0700 -35.0506 -35.0458 -35.0452 -35.0426
   -35.0380 -35.0358 -35.0323 -35.0301 -35.0293 -35.0263 -35.0255 -35.0251
   -35.0214 -35.0200 -35.0179 -35.0175 -35.0165 -35.0161 -35.0134 -35.0128
   -35.0115 -35.0114 -35.0109 -35.0108 -35.0079 -35.0073 -35.0067 -35.0039
   -34.9995 -34.9992 -34.9929 -34.9866 -34.8418 -34.8377 -34.8338 -34.8334
   -34.8319 -34.8313 -34.8275 -34.8267 -34.8260 -34.8259 -34.8252 -34.8248
   -34.8238 -34.8228 -34.8224 -34.8222 -34.8221 -34.8221 -34.8215 -34.8212
   -34.8209 -34.8200 -34.8199 -34.8199 -34.8194 -34.8192 -34.8182 -34.8178
   -34.8161 -34.8159 -34.8156 -34.8154 -34.8138 -34.8124 -34.8116 -34.8108
   -34.7663 -34.7650 -34.7643 -34.7628 -34.7625 -34.7620 -34.7608 -34.7606
   -34.7602 -34.7598 -34.7595 -34.7593 -34.7592 -34.7591 -34.7589 -34.7586
   -34.7583 -34.7579 -34.7573 -34.7573 -34.7569 -34.7567 -34.7563 -34.7561
   -34.7561 -34.7559 -34.7559 -34.7554 -34.7537 -34.7519 -34.7511 -34.7474
   -34.7464 -34.7455 -34.7409 -34.7379 -34.7079 -34.7008 -34.6988 -34.6971
   -34.6971 -34.6960 -34.6955 -34.6942 -34.6930 -34.6926 -34.6912 -34.6891
   -34.6881 -34.6867 -34.6841 -34.6829 -34.6828 -34.6803 -34.6800 -34.6799
   -34.6779 -34.6778 -34.6769 -34.6763 -34.6754 -34.6742 -34.6735 -34.6733
   -34.6729 -34.6727 -34.6721 -34.6716 -34.6714 -34.6705 -34.6634 -34.6630
     3.7283   3.7897   3.9912   4.0538   4.0627   4.0641   4.6534   4.6894
     4.8120   4.8184   5.0871   5.1335   5.1957   5.2186   5.2329   5.2345
     5.2550   5.3878   5.4230   5.4292   5.4306   5.5122   5.5161   5.5249
     5.5259   5.5299   5.5434   5.5533   5.5818   5.6937   5.7298   5.7383
     5.8231   6.0798   6.0831   6.2208   8.7182   9.7505   9.9713   9.9897
     9.9915  10.0414  10.0617  10.1723  10.1742  10.1798  10.1850  10.2366
    10.3037  10.3294  10.3626  10.3724  10.4782  10.4912  10.5173  10.5219
    10.5415  10.5520  10.5561  10.7231  10.7743  10.8880  10.9024  11.0295
    11.0350  11.3478  11.3852  11.6333  11.6350  11.6443  11.6605  11.7451
    11.7480  11.7541  11.8299  11.8398  11.9778  11.9818  11.9881  12.0090
    12.0340  12.0568  12.0683  12.0821  12.0864  12.0893  12.0898  12.2003
    12.2834  12.2976  12.3507  12.3720  12.3840  12.3859  12.3888  12.3994
    12.4350  12.4401  12.4670  12.5687  12.5838  12.5901  12.5940  12.6266
    12.6353  12.6466  12.6468  12.6720  12.6734  12.6764  12.6807  12.6838
    12.6842  12.8071  12.8119  12.8338  12.8373  12.8396  12.8458  12.8515
    12.8661  12.8679  12.9263  13.0195  13.0216  13.0681  13.1135  13.1256
    13.1306  13.1394  13.1417  13.1528  13.1550  13.1605  13.1617  13.3120
    13.3179  13.3207  13.4331  13.4339  13.4450  13.4486  13.4734  13.4798
    13.6297  14.6096  14.6597  14.6702  14.6765  14.6798  14.6803  14.6805
    14.6851  14.6921  14.7057  14.7069  14.7152  14.7154  14.7299  14.7337
    14.7386  14.7549  14.7559  14.7581  14.7610  14.7634  14.7701  14.7898
    14.7987  14.8065  14.8089  14.8244  14.8263  14.8846  14.8900  14.9002
    14.9058  14.9443  14.9487  14.9535  14.9560  14.9579  15.0309  15.0467
    15.0713  15.0747  15.0804  15.0846  15.0892  15.0902  15.1210  15.1271
    15.1422  15.1423  15.1439  15.1512  15.1522  15.1580  15.1657  15.2018
    15.2058  15.2155  15.2223  15.2452  15.2474  15.2718  15.2749  15.2755
    15.2756  15.2927  15.3242  15.3681  15.3683  15.4288  15.4621  15.5068
    15.5117  15.5119  15.5372  15.5400  15.7454  15.7486  15.7755  15.7884
    15.7900  15.7920  15.7986  15.8014  15.8882  15.8915  15.9715  15.9797
    16.0073  16.0177  16.0206  16.0233  16.0266  16.0286  16.0612  16.0903
    16.0907  16.0992  16.1586  16.1598  16.1954  16.2035  16.2153  16.2154
    16.2200  16.2250  16.3053  16.3151  16.3170  16.3398  16.3525  16.3749
    16.3776  16.3892  16.4005  16.4051  16.4054  16.4177  16.4232  16.4255
    16.4324  16.4692  16.4720  16.5620  16.5688  16.5767  16.5848  16.5886
    16.6130  16.6167  16.6251  16.6377  16.6382  16.6399  16.6424  16.6482
    16.6509  16.6569  16.6629  16.6890  16.6999  16.7242  16.7276  16.7684
    16.8179  16.8449  16.8470  16.8631  16.8652  16.8795  16.8812  16.8898
    16.9027  16.9090  16.9223  16.9276  16.9343  16.9464  16.9657  16.9692
    16.9772  16.9822  16.9872  16.9908  16.9939  17.0002  17.0034  17.0039
    17.0139  17.0204  17.0526  17.0579  17.0608  17.0667  17.0698  17.1018
    17.1147  17.1298  17.1343  17.1892  17.2154  17.2175  17.2192  17.2320
    17.2395  17.2423  17.2433  17.2445  17.2473  17.2519  17.2677  17.2813
    17.3009  17.3168  17.3196  17.3237  17.3247  17.3956  17.4056  17.4330
    17.4437  17.4475  17.4532  17.4550  17.4571  17.4858  17.4965  17.5019
    17.5101  17.5136  17.6290  17.6487  17.6552  17.6561  17.7014  17.7214
    17.8540  17.8600  17.8922  17.8945  17.8975  17.9035  17.9056  17.9083
    17.9291  17.9432  17.9497  17.9549  17.9603  17.9748  18.0010  18.0065
    18.0113  18.0130  18.0229  18.0245  18.0290  18.0312  18.0358  18.0627
    18.0659  18.0668  18.0706  18.0829  18.0855  18.0912  18.0967  18.0976
    18.0982  18.1046  18.1078  18.1234  18.1565  18.1652  18.1737  18.1779
    18.2000  18.2049  18.2215  18.2379  18.2620  18.2637  18.2712  18.2736
    18.2841  18.2865  18.2906  18.2926  18.3275  18.3381  18.3385  18.3391
    18.3456  18.3462  18.3585  18.3635  18.3740  18.3742  18.3771  18.3779
    18.3779  18.3817  18.3841  18.3851  18.4143  18.4311  18.4657  18.4733
    18.4866  18.5392  18.7546  18.7573  18.7708  18.7714  18.7716  18.7839
    19.0090  19.0389  19.0496  19.0513  19.0681  19.1832  19.1943  19.2593
    19.2637  19.2656  19.3388  19.3917  19.3966  19.4118  19.4136  19.4205
    19.5362  19.5409  19.5479  19.6507  19.6785  19.7040  19.7565  19.7795
    19.7985  19.7987  19.7993  19.8039  19.8388  19.8593  19.8749  19.9225
    19.9312  19.9477  19.9606  19.9886  20.0431  20.0494  20.0576  20.0589
    20.0986  20.1059  20.1128  20.1286  20.1392  20.1561  20.2032  20.2245
    20.2356  20.3485  20.3852  20.4017  20.4081  20.4097  20.4109  20.5634
    20.6006  20.6120  20.6162  20.7017  20.7149  20.8771  20.9030  20.9431
    21.1385  21.3862  21.4754  21.5808  21.5914  21.6731  22.2055  22.2340

     occupation numbers 
     1.0000   1.0000   1.0000   1.0000   1.0000   1.0000   1.0000   1.0000
     1.0000   1.0000   1.0000   1.0000   1.0000   1.0000   1.0000   1.0000
     1.0000   1.0000   1.0000   1.0000   1.0000   1.0000   1.0000   1.0000
     1.0000   1.0000   1.0000   1.0000   1.0000   1.0000   1.0000   1.0000
     1.0000   1.0000   1.0000   1.0000   1.0000   1.0000   1.0000   1.0000
     1.0000   1.0000   1.0000   1.0000   1.0000   1.0000   1.0000   1.0000
     1.0000   1.0000   1.0000   1.0000   1.0000   1.0000   1.0000   1.0000
     1.0000   1.0000   1.0000   1.0000   1.0000   1.0000   1.0000   1.0000
     1.0000   1.0000   1.0000   1.0000   1.0000   1.0000   1.0000   1.0000
     1.0000   1.0000   1.0000   1.0000   1.0000   1.0000   1.0000   1.0000
     1.0000   1.0000   1.0000   1.0000   1.0000   1.0000   1.0000   1.0000
     1.0000   1.0000   1.0000   1.0000   1.0000   1.0000   1.0000   1.0000
     1.0000   1.0000   1.0000   1.0000   1.0000   1.0000   1.0000   1.0000
     1.0000   1.0000   1.0000   1.0000   1.0000   1.0000   1.0000   1.0000
     1.0000   1.0000   1.0000   1.0000   1.0000   1.0000   1.0000   1.0000
     1.0000   1.0000   1.0000   1.0000   1.0000   1.0000   1.0000   1.0000
     1.0000   1.0000   1.0000   1.0000   1.0000   1.0000   1.0000   1.0000
     1.0000   1.0000   1.0000   1.0000   1.0000   1.0000   1.0000   1.0000
     1.0000   1.0000   1.0000   1.0000   1.0000   1.0000   1.0000   1.0000
     1.0000   1.0000   1.0000   1.0000   1.0000   1.0000   1.0000   1.0000
     1.0000   1.0000   1.0000   1.0000   1.0000   1.0000   1.0000   1.0000
     1.0000   1.0000   1.0000   1.0000   1.0000   1.0000   1.0000   1.0000
     1.0000   1.0000   1.0000   1.0000   1.0000   1.0000   1.0000   1.0000
     1.0000   1.0000   1.0000   1.0000   1.0000   1.0000   1.0000   1.0000
     1.0000   1.0000   1.0000   1.0000   1.0000   1.0000   1.0000   1.0000
     1.0000   1.0000   1.0000   1.0000   1.0000   1.0000   1.0000   1.0000
     1.0000   1.0000   1.0000   1.0000   1.0000   1.0000   1.0000   1.0000
     1.0000   1.0000   1.0000   1.0000   1.0000   1.0000   1.0000   1.0000
     1.0000   1.0000   1.0000   1.0000   1.0000   1.0000   1.0000   1.0000
     1.0000   1.0000   1.0000   1.0000   1.0000   1.0000   1.0000   1.0000
     1.0000   1.0000   1.0000   1.0000   1.0000   1.0000   1.0000   1.0000
     1.0000   1.0000   1.0000   1.0000   1.0000   1.0000   1.0000   1.0000
     1.0000   1.0000   1.0000   1.0000   1.0000   1.0000   1.0000   1.0000
     1.0000   1.0000   1.0000   1.0000   1.0000   1.0000   1.0000   1.0000
     1.0000   1.0000   1.0000   1.0000   1.0000   1.0000   1.0000   1.0000
     1.0000   1.0000   1.0000   1.0000   1.0000   1.0000   1.0000   1.0000
     1.0000   1.0000   1.0000   1.0000   1.0000   1.0000   1.0000   1.0000
     1.0000   1.0000   1.0000   1.0000   1.0000   1.0000   1.0000   1.0000
     1.0000   1.0000   1.0000   1.0000   1.0000   1.0000   1.0000   1.0000
     1.0000   1.0000   1.0000   1.0000   1.0000   1.0000   1.0000   1.0000
     1.0000   1.0000   1.0000   1.0000   1.0000   1.0000   1.0000   1.0000
     1.0000   1.0000   1.0000   1.0000   1.0000   1.0000   1.0000   1.0000
     1.0000   1.0000   1.0000   1.0000   1.0000   1.0000   1.0000   1.0000
     1.0000   1.0000   1.0000   1.0000   1.0000   1.0000   1.0000   1.0000
     1.0000   1.0000   1.0000   1.0000   1.0000   1.0000   1.0000   1.0000
     1.0000   1.0000   1.0000   1.0000   1.0000   1.0000   1.0000   1.0000
     1.0000   1.0000   1.0000   1.0000   1.0000   1.0000   1.0000   1.0000
     1.0000   1.0000   1.0000   1.0000   1.0000   1.0000   1.0000   1.0000
     1.0000   1.0000   1.0000   1.0000   1.0000   1.0000   1.0000   1.0000
     1.0000   1.0000   1.0000   1.0000   1.0000   1.0000   1.0000   1.0000
     1.0000   1.0000   1.0000   1.0000   1.0000   1.0000   1.0000   1.0000
     1.0000   1.0000   1.0000   1.0000   1.0000   1.0000   1.0000   1.0000
     1.0000   1.0000   1.0000   1.0000   1.0000   1.0000   1.0000   1.0000
     1.0000   1.0000   1.0000   1.0000   1.0000   1.0000   1.0000   1.0000
     1.0000   1.0000   1.0000   1.0000   1.0000   1.0000   1.0000   1.0000
     1.0000   1.0000   1.0000   1.0000   1.0000   1.0000   1.0000   1.0000
     1.0000   1.0000   1.0000   1.0000   1.0000   1.0000   1.0000   1.0000
     1.0000   1.0000   1.0000   1.0000   1.0000   1.0000   1.0000   1.0000
     1.0000   1.0000   1.0000   1.0000   1.0000   1.0000   1.0000   1.0000
     1.0000   1.0000   1.0000   1.0000   1.0000   1.0000   1.0000   1.0000
     1.0000   1.0000   1.0000   1.0000   1.0000   1.0000   1.0000   1.0000
     1.0000   1.0000   1.0000   1.0000   1.0000   1.0000   1.0000   1.0000
     1.0000   1.0000   1.0000   1.0000   1.0000   1.0000   1.0000   1.0000
     1.0000   1.0000   1.0000   1.0000   1.0000   1.0000   1.0000   1.0000
     1.0000   1.0000   1.0000   1.0000   1.0000   1.0000   1.0000   1.0000
     1.0000   1.0000   1.0000   1.0000   1.0000   1.0000   1.0000   1.0000
     1.0000   1.0000   1.0000   1.0000   1.0000   1.0000   1.0000   1.0000
     1.0000   1.0000   1.0000   1.0000   1.0000   1.0000   1.0000   1.0000
     1.0000   1.0000   1.0000   1.0000   1.0000   1.0000   1.0000   1.0000
     1.0000   0.9999   0.9999   0.9996   0.9996   0.9995   0.9994   0.9994
     0.9991   0.9990   0.9989   0.9986   0.9986   0.9985   0.9985   0.9983
     0.9982   0.9980   0.9978   0.9967   0.9961   0.9944   0.9941   0.9895
     0.9798   0.9719   0.9711   0.9652   0.9643   0.9581   0.9573   0.9531
     0.9462   0.9424   0.9340   0.9304   0.9256   0.9164   0.8999   0.8967
     0.8890   0.8840   0.8788   0.8750   0.8716   0.8647   0.8611   0.8605
     0.8486   0.8405   0.7965   0.7887   0.7843   0.7752   0.7704   0.7169
     0.6939   0.6657   0.6572   0.5476   0.4932   0.4891   0.4854   0.4590
     0.4436   0.4378   0.4357   0.4334   0.4275   0.4183   0.3865   0.3598
     0.3224   0.2933   0.2884   0.2812   0.2793   0.1702   0.1574   0.1255
     0.1145   0.1107   0.1051   0.1035   0.1015   0.0775   0.0698   0.0661
     0.0607   0.0586   0.0152   0.0116   0.0107   0.0105   0.0055   0.0041
     0.0004   0.0004   0.0002   0.0002   0.0002   0.0002   0.0002   0.0001
     0.0001   0.0001   0.0001   0.0001   0.0001   0.0000   0.0000   0.0000
     0.0000   0.0000   0.0000   0.0000   0.0000   0.0000   0.0000   0.0000
     0.0000   0.0000   0.0000   0.0000   0.0000   0.0000   0.0000   0.0000
     0.0000   0.0000   0.0000   0.0000   0.0000   0.0000   0.0000   0.0000
     0.0000   0.0000   0.0000   0.0000   0.0000   0.0000   0.0000   0.0000
     0.0000   0.0000   0.0000   0.0000   0.0000   0.0000   0.0000   0.0000
     0.0000   0.0000   0.0000   0.0000   0.0000   0.0000   0.0000   0.0000
     0.0000   0.0000   0.0000   0.0000   0.0000   0.0000   0.0000   0.0000
     0.0000   0.0000   0.0000   0.0000   0.0000   0.0000   0.0000   0.0000
     0.0000   0.0000   0.0000   0.0000   0.0000   0.0000   0.0000   0.0000
     0.0000   0.0000   0.0000   0.0000   0.0000   0.0000   0.0000   0.0000
     0.0000   0.0000   0.0000   0.0000   0.0000   0.0000   0.0000   0.0000
     0.0000   0.0000   0.0000   0.0000   0.0000   0.0000   0.0000   0.0000
     0.0000   0.0000   0.0000   0.0000   0.0000   0.0000   0.0000   0.0000
     0.0000   0.0000   0.0000   0.0000   0.0000   0.0000   0.0000   0.0000
     0.0000   0.0000   0.0000   0.0000   0.0000   0.0000   0.0000   0.0000
     0.0000   0.0000   0.0000   0.0000   0.0000   0.0000   0.0000   0.0000
     0.0000   0.0000   0.0000   0.0000   0.0000   0.0000   0.0000   0.0000

          k =-0.2500 0.1443 0.0000 (100583 PWs)   bands (ev):

   -69.1493 -69.1395 -69.0695 -69.0554 -69.0343 -69.0339 -69.0324 -69.0318
   -69.0190 -69.0185 -69.0185 -69.0181 -69.0164 -69.0160 -69.0131 -69.0127
   -69.0127 -69.0118 -69.0091 -69.0071 -69.0070 -69.0068 -69.0067 -69.0067
   -69.0065 -69.0064 -69.0062 -69.0047 -69.0044 -69.0043 -69.0041 -69.0014
   -68.9951 -68.9951 -68.9774 -68.9771 -68.6456 -68.6421 -68.6413 -68.6397
   -68.6393 -68.6365 -68.6365 -68.6360 -68.6360 -68.6345 -68.6344 -68.6341
   -68.6341 -68.6333 -68.6331 -68.6328 -68.6326 -68.6325 -68.6323 -68.6320
   -68.6320 -68.6319 -68.6316 -68.6314 -68.6314 -68.6311 -68.6311 -68.6308
   -68.6307 -68.6302 -68.6292 -68.6292 -68.6287 -68.6287 -68.6236 -68.6236
   -35.4825 -35.4063 -35.3481 -35.3044 -35.3035 -35.3034 -35.3029 -35.3002
   -35.2991 -35.2960 -35.2958 -35.2954 -35.2949 -35.2886 -35.2885 -35.2548
   -35.2400 -35.2375 -35.2366 -35.2362 -35.2362 -35.2359 -35.2349 -35.2310
   -35.2308 -35.2287 -35.2281 -35.2266 -35.2265 -35.2259 -35.2258 -35.2251
   -35.2245 -35.2242 -35.2193 -35.2191 -35.2174 -35.2173 -35.2166 -35.1875
   -35.1827 -35.1816 -35.1798 -35.1786 -35.1773 -35.1744 -35.1738 -35.1724
   -35.1721 -35.1720 -35.1715 -35.1712 -35.1704 -35.1701 -35.1686 -35.1684
   -35.1673 -35.1644 -35.1640 -35.1631 -35.1610 -35.1593 -35.1593 -35.1589
   -35.1582 -35.1570 -35.1554 -35.1553 -35.1543 -35.1542 -35.1373 -35.1359
   -35.1074 -35.1012 -35.0870 -35.0694 -35.0506 -35.0450 -35.0440 -35.0415
   -35.0386 -35.0366 -35.0315 -35.0305 -35.0304 -35.0268 -35.0257 -35.0237
   -35.0204 -35.0199 -35.0190 -35.0184 -35.0181 -35.0160 -35.0159 -35.0142
   -35.0131 -35.0130 -35.0114 -35.0109 -35.0089 -35.0076 -35.0042 -35.0019
   -34.9973 -34.9969 -34.9935 -34.9858 -34.8399 -34.8395 -34.8332 -34.8307
   -34.8300 -34.8299 -34.8293 -34.8268 -34.8265 -34.8259 -34.8259 -34.8254
   -34.8242 -34.8234 -34.8232 -34.8225 -34.8224 -34.8221 -34.8218 -34.8215
   -34.8214 -34.8210 -34.8203 -34.8199 -34.8198 -34.8192 -34.8186 -34.8184
   -34.8180 -34.8160 -34.8159 -34.8155 -34.8144 -34.8124 -34.8093 -34.8051
   -34.7680 -34.7675 -34.7669 -34.7653 -34.7642 -34.7638 -34.7628 -34.7611
   -34.7608 -34.7603 -34.7601 -34.7598 -34.7597 -34.7594 -34.7590 -34.7580
   -34.7567 -34.7564 -34.7560 -34.7557 -34.7555 -34.7553 -34.7544 -34.7543
   -34.7542 -34.7538 -34.7527 -34.7522 -34.7515 -34.7513 -34.7509 -34.7500
   -34.7500 -34.7491 -34.7398 -34.7391 -34.7084 -34.7011 -34.7005 -34.6984
   -34.6957 -34.6944 -34.6943 -34.6942 -34.6914 -34.6910 -34.6904 -34.6887
   -34.6880 -34.6878 -34.6855 -34.6839 -34.6834 -34.6816 -34.6805 -34.6796
   -34.6795 -34.6781 -34.6777 -34.6754 -34.6751 -34.6750 -34.6728 -34.6724
   -34.6724 -34.6722 -34.6718 -34.6716 -34.6712 -34.6708 -34.6633 -34.6631
     3.3386   3.9032   4.1465   4.1801   4.3691   4.4208   4.6184   4.6474
     4.8162   4.8437   4.8593   5.0026   5.0395   5.0427   5.0485   5.2567
     5.2660   5.3170   5.3577   5.3627   5.3645   5.3965   5.4173   5.4662
     5.4671   5.6999   5.7030   5.7562   5.7568   5.7619   5.7690   5.7726
     5.8523   5.8646   6.1434   6.1446   8.7100   9.7525   9.8127   9.9310
    10.2136  10.2201  10.2214  10.2601  10.3273  10.3413  10.4114  10.5459
    10.6260  10.6302  10.6425  10.6537  10.6564  10.6612  10.6619  10.6675
    10.6922  10.7183  10.7929  10.8660  10.8711  10.8745  10.9440  10.9467
    11.0075  11.0618  11.1657  11.1842  11.2635  11.3213  11.3231  11.3649
    11.4091  11.4123  11.4511  11.4877  11.4932  11.5264  11.5715  11.5739
    11.5789  11.9224  11.9664  12.0111  12.1196  12.1212  12.1368  12.1388
    12.1462  12.1463  12.1535  12.2194  12.2634  12.3002  12.3116  12.3136
    12.3279  12.3350  12.3498  12.3534  12.5493  12.5557  12.5991  12.6378
    12.6754  12.6904  12.6948  12.6972  12.6996  12.7304  12.7625  12.7666
    12.8278  12.8521  12.9012  12.9296  12.9403  12.9428  12.9632  12.9656
    12.9688  12.9705  12.9720  12.9981  13.0021  13.1881  13.2217  13.2406
    13.2435  13.2902  13.2974  13.3063  13.3111  13.3866  13.3965  13.4682
    13.4703  13.4748  13.4764  13.4851  13.6034  13.8251  13.8290  13.9720
    13.9832  14.4526  14.5325  14.5390  14.5428  14.5489  14.5574  14.5840
    14.6198  14.6274  14.6753  14.7002  14.7466  14.7536  14.7578  14.7600
    14.7657  14.7675  14.7710  14.7764  14.7777  14.7842  14.7882  14.8321
    14.8350  14.8462  14.8476  14.8659  14.8740  14.8844  14.8915  14.8954
    14.9168  14.9247  14.9526  14.9663  14.9696  14.9697  14.9959  15.0011
    15.0098  15.0120  15.0160  15.0182  15.0911  15.1124  15.1178  15.1298
    15.1391  15.1408  15.1560  15.1584  15.1641  15.2435  15.2669  15.2769
    15.2910  15.2951  15.2974  15.3370  15.3397  15.3480  15.3935  15.4293
    15.4333  15.4629  15.4728  15.4743  15.4769  15.4915  15.5006  15.5018
    15.5076  15.5134  15.5144  15.5221  15.5263  15.6166  15.6329  15.6474
    15.7067  15.7753  15.8619  15.8739  15.9125  15.9445  15.9509  15.9564
    15.9819  15.9837  15.9872  16.0092  16.0112  16.0187  16.0251  16.0258
    16.0289  16.0376  16.0528  16.0651  16.0959  16.0989  16.1145  16.1180
    16.1193  16.1265  16.1268  16.1389  16.1601  16.1718  16.1846  16.2070
    16.2180  16.2300  16.3281  16.3370  16.3434  16.3481  16.3615  16.3771
    16.5101  16.5131  16.5159  16.5230  16.5285  16.5368  16.5375  16.5756
    16.5761  16.5772  16.6210  16.6605  16.6833  16.6897  16.7040  16.7242
    16.7261  16.7486  16.7499  16.7595  16.7599  16.7610  16.7689  16.7763
    16.7908  16.7948  16.8066  16.8222  16.8456  16.8556  16.8572  16.8672
    16.8981  16.9569  16.9921  17.0017  17.0093  17.0120  17.0226  17.0351
    17.0389  17.0458  17.0484  17.0522  17.0544  17.0571  17.0652  17.0669
    17.0686  17.0739  17.0760  17.0887  17.0907  17.1014  17.1066  17.1131
    17.1241  17.1442  17.1735  17.1891  17.1909  17.2133  17.2514  17.2681
    17.2857  17.2889  17.2904  17.2926  17.2954  17.3001  17.3238  17.3494
    17.3886  17.3960  17.4146  17.4151  17.4268  17.4297  17.4419  17.4449
    17.4483  17.4656  17.4707  17.4857  17.4899  17.5021  17.5056  17.5178
    17.5230  17.5629  17.5661  17.6981  17.7039  17.7106  17.7879  17.8093
    17.8227  17.8257  17.8441  17.8478  17.8560  17.8744  17.8796  17.8818
    17.8947  17.9404  17.9475  17.9504  17.9859  17.9930  18.0045  18.0055
    18.0059  18.0082  18.0154  18.0174  18.0333  18.0342  18.0416  18.0433
    18.0433  18.0528  18.0537  18.0620  18.0629  18.0759  18.0760  18.0859
    18.0879  18.0945  18.1079  18.1105  18.1309  18.1377  18.1411  18.1437
    18.1474  18.1532  18.1534  18.1579  18.1713  18.1764  18.1792  18.1820
    18.2130  18.2178  18.2238  18.2331  18.2540  18.2580  18.2581  18.2697
    18.2789  18.2835  18.2863  18.3195  18.3241  18.3242  18.3300  18.3310
    18.3629  18.3685  18.3697  18.3753  18.4044  18.4767  18.4855  18.4878
    18.5414  18.5441  18.7449  18.7833  18.8162  18.9433  18.9640  18.9680
    18.9898  19.0976  19.2215  19.2628  19.2998  19.3170  19.3175  19.3259
    19.3340  19.3483  19.3638  19.3700  19.3952  19.3986  19.4160  19.4243
    19.4650  19.4712  19.4772  19.5093  19.5136  19.5326  19.5379  19.5396
    19.5826  19.6021  19.8390  19.8538  19.8664  19.8669  19.8695  19.8917
    19.9043  19.9154  19.9559  19.9839  20.0213  20.0575  20.0681  20.0799
    20.0994  20.1568  20.1873  20.1917  20.2005  20.2622  20.2967  20.3215
    20.3638  20.3995  20.4177  20.5151  20.5163  20.5528  20.5792  20.5898
    20.5926  20.8253  20.9354  20.9424  21.1013  21.1179  21.1781  21.2220
    21.2549  21.6744  21.6767  21.7034  21.7170  21.7523  21.7526  21.7851

     occupation numbers 
     1.0000   1.0000   1.0000   1.0000   1.0000   1.0000   1.0000   1.0000
     1.0000   1.0000   1.0000   1.0000   1.0000   1.0000   1.0000   1.0000
     1.0000   1.0000   1.0000   1.0000   1.0000   1.0000   1.0000   1.0000
     1.0000   1.0000   1.0000   1.0000   1.0000   1.0000   1.0000   1.0000
     1.0000   1.0000   1.0000   1.0000   1.0000   1.0000   1.0000   1.0000
     1.0000   1.0000   1.0000   1.0000   1.0000   1.0000   1.0000   1.0000
     1.0000   1.0000   1.0000   1.0000   1.0000   1.0000   1.0000   1.0000
     1.0000   1.0000   1.0000   1.0000   1.0000   1.0000   1.0000   1.0000
     1.0000   1.0000   1.0000   1.0000   1.0000   1.0000   1.0000   1.0000
     1.0000   1.0000   1.0000   1.0000   1.0000   1.0000   1.0000   1.0000
     1.0000   1.0000   1.0000   1.0000   1.0000   1.0000   1.0000   1.0000
     1.0000   1.0000   1.0000   1.0000   1.0000   1.0000   1.0000   1.0000
     1.0000   1.0000   1.0000   1.0000   1.0000   1.0000   1.0000   1.0000
     1.0000   1.0000   1.0000   1.0000   1.0000   1.0000   1.0000   1.0000
     1.0000   1.0000   1.0000   1.0000   1.0000   1.0000   1.0000   1.0000
     1.0000   1.0000   1.0000   1.0000   1.0000   1.0000   1.0000   1.0000
     1.0000   1.0000   1.0000   1.0000   1.0000   1.0000   1.0000   1.0000
     1.0000   1.0000   1.0000   1.0000   1.0000   1.0000   1.0000   1.0000
     1.0000   1.0000   1.0000   1.0000   1.0000   1.0000   1.0000   1.0000
     1.0000   1.0000   1.0000   1.0000   1.0000   1.0000   1.0000   1.0000
     1.0000   1.0000   1.0000   1.0000   1.0000   1.0000   1.0000   1.0000
     1.0000   1.0000   1.0000   1.0000   1.0000   1.0000   1.0000   1.0000
     1.0000   1.0000   1.0000   1.0000   1.0000   1.0000   1.0000   1.0000
     1.0000   1.0000   1.0000   1.0000   1.0000   1.0000   1.0000   1.0000
     1.0000   1.0000   1.0000   1.0000   1.0000   1.0000   1.0000   1.0000
     1.0000   1.0000   1.0000   1.0000   1.0000   1.0000   1.0000   1.0000
     1.0000   1.0000   1.0000   1.0000   1.0000   1.0000   1.0000   1.0000
     1.0000   1.0000   1.0000   1.0000   1.0000   1.0000   1.0000   1.0000
     1.0000   1.0000   1.0000   1.0000   1.0000   1.0000   1.0000   1.0000
     1.0000   1.0000   1.0000   1.0000   1.0000   1.0000   1.0000   1.0000
     1.0000   1.0000   1.0000   1.0000   1.0000   1.0000   1.0000   1.0000
     1.0000   1.0000   1.0000   1.0000   1.0000   1.0000   1.0000   1.0000
     1.0000   1.0000   1.0000   1.0000   1.0000   1.0000   1.0000   1.0000
     1.0000   1.0000   1.0000   1.0000   1.0000   1.0000   1.0000   1.0000
     1.0000   1.0000   1.0000   1.0000   1.0000   1.0000   1.0000   1.0000
     1.0000   1.0000   1.0000   1.0000   1.0000   1.0000   1.0000   1.0000
     1.0000   1.0000   1.0000   1.0000   1.0000   1.0000   1.0000   1.0000
     1.0000   1.0000   1.0000   1.0000   1.0000   1.0000   1.0000   1.0000
     1.0000   1.0000   1.0000   1.0000   1.0000   1.0000   1.0000   1.0000
     1.0000   1.0000   1.0000   1.0000   1.0000   1.0000   1.0000   1.0000
     1.0000   1.0000   1.0000   1.0000   1.0000   1.0000   1.0000   1.0000
     1.0000   1.0000   1.0000   1.0000   1.0000   1.0000   1.0000   1.0000
     1.0000   1.0000   1.0000   1.0000   1.0000   1.0000   1.0000   1.0000
     1.0000   1.0000   1.0000   1.0000   1.0000   1.0000   1.0000   1.0000
     1.0000   1.0000   1.0000   1.0000   1.0000   1.0000   1.0000   1.0000
     1.0000   1.0000   1.0000   1.0000   1.0000   1.0000   1.0000   1.0000
     1.0000   1.0000   1.0000   1.0000   1.0000   1.0000   1.0000   1.0000
     1.0000   1.0000   1.0000   1.0000   1.0000   1.0000   1.0000   1.0000
     1.0000   1.0000   1.0000   1.0000   1.0000   1.0000   1.0000   1.0000
     1.0000   1.0000   1.0000   1.0000   1.0000   1.0000   1.0000   1.0000
     1.0000   1.0000   1.0000   1.0000   1.0000   1.0000   1.0000   1.0000
     1.0000   1.0000   1.0000   1.0000   1.0000   1.0000   1.0000   1.0000
     1.0000   1.0000   1.0000   1.0000   1.0000   1.0000   1.0000   1.0000
     1.0000   1.0000   1.0000   1.0000   1.0000   1.0000   1.0000   1.0000
     1.0000   1.0000   1.0000   1.0000   1.0000   1.0000   1.0000   1.0000
     1.0000   1.0000   1.0000   1.0000   1.0000   1.0000   1.0000   1.0000
     1.0000   1.0000   1.0000   1.0000   1.0000   1.0000   1.0000   1.0000
     1.0000   1.0000   1.0000   1.0000   1.0000   1.0000   1.0000   1.0000
     1.0000   1.0000   1.0000   1.0000   1.0000   1.0000   1.0000   1.0000
     1.0000   1.0000   1.0000   1.0000   1.0000   1.0000   1.0000   1.0000
     1.0000   1.0000   1.0000   1.0000   1.0000   1.0000   1.0000   1.0000
     1.0000   1.0000   1.0000   1.0000   1.0000   1.0000   1.0000   1.0000
     1.0000   1.0000   1.0000   1.0000   1.0000   1.0000   1.0000   1.0000
     1.0000   1.0000   1.0000   1.0000   1.0000   1.0000   1.0000   1.0000
     1.0000   1.0000   1.0000   1.0000   1.0000   1.0000   1.0000   1.0000
     1.0000   1.0000   1.0000   1.0000   1.0000   1.0000   1.0000   1.0000
     1.0000   1.0000   1.0000   1.0000   1.0000   1.0000   1.0000   1.0000
     1.0000   1.0000   1.0000   1.0000   1.0000   1.0000   1.0000   1.0000
     1.0000   1.0000   1.0000   1.0000   1.0000   1.0000   1.0000   1.0000
     0.9999   0.9999   0.9999   0.9998   0.9998   0.9998   0.9998   0.9995
     0.9995   0.9995   0.9989   0.9979   0.9970   0.9967   0.9959   0.9944
     0.9942   0.9920   0.9919   0.9907   0.9906   0.9905   0.9894   0.9883
     0.9857   0.9850   0.9825   0.9786   0.9716   0.9681   0.9675   0.9635
     0.9487   0.9077   0.8737   0.8630   0.8542   0.8509   0.8378   0.8213
     0.8161   0.8064   0.8027   0.7972   0.7939   0.7899   0.7776   0.7749
     0.7722   0.7639   0.7605   0.7395   0.7362   0.7176   0.7083   0.6967
     0.6764   0.6381   0.5797   0.5478   0.5441   0.4977   0.4192   0.3857
     0.3511   0.3450   0.3421   0.3379   0.3327   0.3238   0.2809   0.2378
     0.1796   0.1697   0.1463   0.1458   0.1323   0.1291   0.1162   0.1132
     0.1099   0.0939   0.0895   0.0776   0.0745   0.0659   0.0636   0.0561
     0.0531   0.0342   0.0329   0.0058   0.0053   0.0048   0.0014   0.0010
     0.0008   0.0007   0.0005   0.0005   0.0004   0.0003   0.0003   0.0003
     0.0002   0.0001   0.0001   0.0001   0.0000   0.0000   0.0000   0.0000
     0.0000   0.0000   0.0000   0.0000   0.0000   0.0000   0.0000   0.0000
     0.0000   0.0000   0.0000   0.0000   0.0000   0.0000   0.0000   0.0000
     0.0000   0.0000   0.0000   0.0000   0.0000   0.0000   0.0000   0.0000
     0.0000   0.0000   0.0000   0.0000   0.0000   0.0000   0.0000   0.0000
     0.0000   0.0000   0.0000   0.0000   0.0000   0.0000   0.0000   0.0000
     0.0000   0.0000   0.0000   0.0000   0.0000   0.0000   0.0000   0.0000
     0.0000   0.0000   0.0000   0.0000   0.0000   0.0000   0.0000   0.0000
     0.0000   0.0000   0.0000   0.0000   0.0000   0.0000   0.0000   0.0000
     0.0000   0.0000   0.0000   0.0000   0.0000   0.0000   0.0000   0.0000
     0.0000   0.0000   0.0000   0.0000   0.0000   0.0000   0.0000   0.0000
     0.0000   0.0000   0.0000   0.0000   0.0000   0.0000   0.0000   0.0000
     0.0000   0.0000   0.0000   0.0000   0.0000   0.0000   0.0000   0.0000
     0.0000   0.0000   0.0000   0.0000   0.0000   0.0000   0.0000   0.0000
     0.0000   0.0000   0.0000   0.0000   0.0000   0.0000   0.0000   0.0000
     0.0000   0.0000   0.0000   0.0000   0.0000   0.0000   0.0000   0.0000
     0.0000   0.0000   0.0000   0.0000   0.0000   0.0000   0.0000   0.0000
     0.0000   0.0000   0.0000   0.0000   0.0000   0.0000   0.0000   0.0000

          k = 0.0000 0.2887-0.2850 (100631 PWs)   bands (ev):

   -69.1493 -69.1395 -69.0695 -69.0554 -69.0343 -69.0339 -69.0324 -69.0318
   -69.0190 -69.0185 -69.0185 -69.0181 -69.0163 -69.0160 -69.0131 -69.0127
   -69.0127 -69.0118 -69.0091 -69.0071 -69.0070 -69.0068 -69.0067 -69.0067
   -69.0065 -69.0064 -69.0062 -69.0047 -69.0044 -69.0043 -69.0041 -69.0014
   -68.9951 -68.9951 -68.9774 -68.9771 -68.6456 -68.6421 -68.6413 -68.6397
   -68.6393 -68.6365 -68.6365 -68.6360 -68.6360 -68.6345 -68.6344 -68.6341
   -68.6341 -68.6333 -68.6331 -68.6327 -68.6326 -68.6325 -68.6324 -68.6320
   -68.6319 -68.6319 -68.6317 -68.6314 -68.6314 -68.6311 -68.6311 -68.6308
   -68.6307 -68.6302 -68.6292 -68.6292 -68.6287 -68.6287 -68.6236 -68.6236
   -35.4825 -35.4063 -35.3481 -35.3044 -35.3036 -35.3034 -35.3028 -35.3002
   -35.2990 -35.2961 -35.2957 -35.2954 -35.2951 -35.2886 -35.2885 -35.2549
   -35.2401 -35.2374 -35.2371 -35.2362 -35.2358 -35.2354 -35.2349 -35.2313
   -35.2299 -35.2285 -35.2281 -35.2275 -35.2265 -35.2262 -35.2258 -35.2251
   -35.2246 -35.2245 -35.2194 -35.2184 -35.2176 -35.2172 -35.2167 -35.1877
   -35.1833 -35.1816 -35.1800 -35.1779 -35.1767 -35.1739 -35.1730 -35.1725
   -35.1720 -35.1719 -35.1714 -35.1709 -35.1706 -35.1704 -35.1692 -35.1691
   -35.1679 -35.1646 -35.1636 -35.1631 -35.1610 -35.1595 -35.1593 -35.1585
   -35.1579 -35.1570 -35.1563 -35.1554 -35.1544 -35.1537 -35.1374 -35.1358
   -35.1074 -35.1013 -35.0871 -35.0697 -35.0505 -35.0459 -35.0447 -35.0426
   -35.0374 -35.0364 -35.0313 -35.0307 -35.0289 -35.0274 -35.0255 -35.0242
   -35.0216 -35.0203 -35.0187 -35.0178 -35.0175 -35.0153 -35.0138 -35.0132
   -35.0128 -35.0125 -35.0113 -35.0110 -35.0091 -35.0078 -35.0051 -35.0022
   -34.9984 -34.9979 -34.9932 -34.9862 -34.8413 -34.8383 -34.8333 -34.8330
   -34.8310 -34.8305 -34.8273 -34.8270 -34.8262 -34.8260 -34.8257 -34.8249
   -34.8235 -34.8232 -34.8228 -34.8224 -34.8223 -34.8220 -34.8217 -34.8213
   -34.8207 -34.8206 -34.8203 -34.8198 -34.8196 -34.8191 -34.8184 -34.8181
   -34.8179 -34.8168 -34.8153 -34.8151 -34.8139 -34.8132 -34.8110 -34.8068
   -34.7666 -34.7664 -34.7659 -34.7646 -34.7634 -34.7630 -34.7625 -34.7616
   -34.7612 -34.7606 -34.7600 -34.7593 -34.7587 -34.7584 -34.7580 -34.7577
   -34.7572 -34.7568 -34.7565 -34.7563 -34.7561 -34.7556 -34.7553 -34.7552
   -34.7549 -34.7546 -34.7544 -34.7543 -34.7541 -34.7526 -34.7512 -34.7488
   -34.7470 -34.7467 -34.7405 -34.7383 -34.7086 -34.7005 -34.6998 -34.6984
   -34.6962 -34.6956 -34.6942 -34.6939 -34.6914 -34.6910 -34.6905 -34.6897
   -34.6893 -34.6871 -34.6840 -34.6832 -34.6824 -34.6810 -34.6802 -34.6801
   -34.6795 -34.6792 -34.6783 -34.6752 -34.6750 -34.6750 -34.6730 -34.6728
   -34.6727 -34.6724 -34.6718 -34.6716 -34.6711 -34.6703 -34.6634 -34.6630
     3.4104   3.9375   3.9929   4.2107   4.2470   4.4659   4.6519   4.6986
     4.7036   4.7097   4.8537   4.8882   5.0765   5.0945   5.2114   5.2428
     5.2992   5.3057   5.3582   5.3714   5.4306   5.4545   5.5435   5.5625
     5.5847   5.5895   5.6001   5.6342   5.6430   5.7085   5.7886   5.8815
     5.8901   5.9790   6.0058   6.2547   8.7109   9.8206   9.8777   9.9091
     9.9558  10.0435  10.1095  10.1583  10.2148  10.2248  10.2258  10.2689
    10.2883  10.3465  10.4480  10.5594  10.6825  10.7445  10.7489  10.7533
    10.7865  10.8164  10.8444  10.8513  10.8668  10.9077  11.0174  11.0794
    11.1006  11.1466  11.2139  11.2656  11.3328  11.3984  11.4445  11.4668
    11.5085  11.5272  11.5614  11.6052  11.6462  11.6934  11.7855  11.7995
    11.8650  11.8699  11.8774  11.9301  12.0987  12.2147  12.2268  12.2529
    12.2633  12.2736  12.2799  12.3167  12.3320  12.3532  12.3795  12.4040
    12.4240  12.4295  12.4457  12.4599  12.4740  12.4801  12.5283  12.5495
    12.5831  12.5918  12.6424  12.6476  12.6835  12.6902  12.7261  12.7364
    12.8084  12.8299  12.8486  12.8552  12.8680  12.8957  12.9046  12.9318
    12.9945  13.0144  13.0231  13.0914  13.1263  13.1454  13.1537  13.1929
    13.2347  13.2390  13.2482  13.2671  13.2739  13.2898  13.3235  13.3499
    13.3584  13.3804  13.4178  13.4281  13.4313  13.6498  13.6986  13.7092
    13.7516  14.5041  14.5401  14.5911  14.6014  14.6081  14.6328  14.6433
    14.6550  14.6924  14.6994  14.7036  14.7097  14.7351  14.7415  14.7491
    14.7807  14.7843  14.7886  14.7938  14.7985  14.8111  14.8211  14.8296
    14.8348  14.8499  14.8582  14.8798  14.8839  14.8887  14.9084  14.9197
    14.9238  14.9289  14.9340  14.9381  14.9437  14.9460  14.9642  14.9813
    15.0212  15.0463  15.0496  15.0566  15.0609  15.0842  15.0888  15.0967
    15.1139  15.1225  15.1791  15.2040  15.2068  15.2079  15.2186  15.2354
    15.2414  15.2501  15.2967  15.3144  15.3221  15.3332  15.3438  15.3553
    15.3688  15.3745  15.3863  15.4110  15.4333  15.4443  15.4828  15.5054
    15.5112  15.5212  15.5524  15.6152  15.6209  15.6464  15.6625  15.6661
    15.7158  15.7728  15.8301  15.8752  15.9298  15.9383  15.9697  15.9792
    15.9967  16.0050  16.0086  16.0135  16.0196  16.0323  16.0451  16.0471
    16.0546  16.0601  16.0703  16.0751  16.0775  16.0822  16.1114  16.1288
    16.1764  16.1922  16.1996  16.2047  16.2206  16.2273  16.2450  16.3124
    16.3205  16.3308  16.3369  16.3492  16.3517  16.3650  16.3682  16.3987
    16.4586  16.4672  16.4743  16.4793  16.5451  16.5500  16.5662  16.5822
    16.5912  16.6443  16.6665  16.6800  16.6843  16.6893  16.6954  16.7101
    16.7211  16.7247  16.7302  16.7381  16.7396  16.7463  16.7539  16.7601
    16.8037  16.8178  16.8258  16.8386  16.8440  16.8609  16.8700  16.8995
    16.9291  16.9420  16.9460  16.9638  16.9754  16.9867  16.9948  16.9978
    17.0027  17.0094  17.0176  17.0226  17.0305  17.0358  17.0407  17.0456
    17.0559  17.0699  17.0757  17.0807  17.0827  17.0895  17.0936  17.1009
    17.1095  17.1128  17.1212  17.1610  17.2068  17.2255  17.2288  17.2353
    17.2412  17.2482  17.2537  17.2606  17.2723  17.2794  17.2857  17.3002
    17.3414  17.3652  17.3906  17.4060  17.4187  17.4309  17.4392  17.4432
    17.4701  17.4762  17.4836  17.4906  17.5020  17.5082  17.5111  17.5180
    17.5196  17.5600  17.6412  17.6499  17.6797  17.6825  17.7114  17.7632
    17.8057  17.8216  17.8688  17.8813  17.8911  17.8945  17.9137  17.9208
    17.9380  17.9608  17.9648  17.9757  17.9808  17.9853  17.9915  18.0030
    18.0114  18.0194  18.0252  18.0267  18.0279  18.0332  18.0362  18.0418
    18.0438  18.0473  18.0507  18.0554  18.0594  18.0721  18.0777  18.0843
    18.0894  18.0928  18.0998  18.1036  18.1067  18.1195  18.1220  18.1612
    18.1678  18.1781  18.1801  18.1860  18.1918  18.1936  18.1968  18.2017
    18.2045  18.2220  18.2364  18.2442  18.2628  18.2641  18.2706  18.2963
    18.3007  18.3240  18.3286  18.3440  18.3700  18.3890  18.3924  18.4011
    18.4038  18.4082  18.4122  18.4351  18.4371  18.4496  18.4693  18.5120
    18.5185  18.5732  18.6172  18.7813  18.8664  18.9202  18.9944  19.0426
    19.0565  19.0749  19.0948  19.1438  19.1643  19.2331  19.2555  19.2620
    19.2684  19.2757  19.2959  19.2977  19.3132  19.3356  19.4557  19.4756
    19.4959  19.5364  19.5446  19.5908  19.5987  19.6222  19.6468  19.6831
    19.6926  19.6959  19.7128  19.7217  19.7400  19.8069  19.8221  19.8262
    19.8297  19.9258  19.9368  19.9704  20.0018  20.0372  20.0746  20.0839
    20.1252  20.1299  20.1590  20.1694  20.1859  20.2311  20.3010  20.3942
    20.4149  20.4222  20.4433  20.4948  20.5095  20.5120  20.5784  20.5995
    20.6255  20.6369  20.7432  20.7568  20.7796  20.8026  21.0583  21.1612
    21.3527  21.4170  21.4581  21.4685  21.4848  21.8420  21.9046  21.9507

     occupation numbers 
     1.0000   1.0000   1.0000   1.0000   1.0000   1.0000   1.0000   1.0000
     1.0000   1.0000   1.0000   1.0000   1.0000   1.0000   1.0000   1.0000
     1.0000   1.0000   1.0000   1.0000   1.0000   1.0000   1.0000   1.0000
     1.0000   1.0000   1.0000   1.0000   1.0000   1.0000   1.0000   1.0000
     1.0000   1.0000   1.0000   1.0000   1.0000   1.0000   1.0000   1.0000
     1.0000   1.0000   1.0000   1.0000   1.0000   1.0000   1.0000   1.0000
     1.0000   1.0000   1.0000   1.0000   1.0000   1.0000   1.0000   1.0000
     1.0000   1.0000   1.0000   1.0000   1.0000   1.0000   1.0000   1.0000
     1.0000   1.0000   1.0000   1.0000   1.0000   1.0000   1.0000   1.0000
     1.0000   1.0000   1.0000   1.0000   1.0000   1.0000   1.0000   1.0000
     1.0000   1.0000   1.0000   1.0000   1.0000   1.0000   1.0000   1.0000
     1.0000   1.0000   1.0000   1.0000   1.0000   1.0000   1.0000   1.0000
     1.0000   1.0000   1.0000   1.0000   1.0000   1.0000   1.0000   1.0000
     1.0000   1.0000   1.0000   1.0000   1.0000   1.0000   1.0000   1.0000
     1.0000   1.0000   1.0000   1.0000   1.0000   1.0000   1.0000   1.0000
     1.0000   1.0000   1.0000   1.0000   1.0000   1.0000   1.0000   1.0000
     1.0000   1.0000   1.0000   1.0000   1.0000   1.0000   1.0000   1.0000
     1.0000   1.0000   1.0000   1.0000   1.0000   1.0000   1.0000   1.0000
     1.0000   1.0000   1.0000   1.0000   1.0000   1.0000   1.0000   1.0000
     1.0000   1.0000   1.0000   1.0000   1.0000   1.0000   1.0000   1.0000
     1.0000   1.0000   1.0000   1.0000   1.0000   1.0000   1.0000   1.0000
     1.0000   1.0000   1.0000   1.0000   1.0000   1.0000   1.0000   1.0000
     1.0000   1.0000   1.0000   1.0000   1.0000   1.0000   1.0000   1.0000
     1.0000   1.0000   1.0000   1.0000   1.0000   1.0000   1.0000   1.0000
     1.0000   1.0000   1.0000   1.0000   1.0000   1.0000   1.0000   1.0000
     1.0000   1.0000   1.0000   1.0000   1.0000   1.0000   1.0000   1.0000
     1.0000   1.0000   1.0000   1.0000   1.0000   1.0000   1.0000   1.0000
     1.0000   1.0000   1.0000   1.0000   1.0000   1.0000   1.0000   1.0000
     1.0000   1.0000   1.0000   1.0000   1.0000   1.0000   1.0000   1.0000
     1.0000   1.0000   1.0000   1.0000   1.0000   1.0000   1.0000   1.0000
     1.0000   1.0000   1.0000   1.0000   1.0000   1.0000   1.0000   1.0000
     1.0000   1.0000   1.0000   1.0000   1.0000   1.0000   1.0000   1.0000
     1.0000   1.0000   1.0000   1.0000   1.0000   1.0000   1.0000   1.0000
     1.0000   1.0000   1.0000   1.0000   1.0000   1.0000   1.0000   1.0000
     1.0000   1.0000   1.0000   1.0000   1.0000   1.0000   1.0000   1.0000
     1.0000   1.0000   1.0000   1.0000   1.0000   1.0000   1.0000   1.0000
     1.0000   1.0000   1.0000   1.0000   1.0000   1.0000   1.0000   1.0000
     1.0000   1.0000   1.0000   1.0000   1.0000   1.0000   1.0000   1.0000
     1.0000   1.0000   1.0000   1.0000   1.0000   1.0000   1.0000   1.0000
     1.0000   1.0000   1.0000   1.0000   1.0000   1.0000   1.0000   1.0000
     1.0000   1.0000   1.0000   1.0000   1.0000   1.0000   1.0000   1.0000
     1.0000   1.0000   1.0000   1.0000   1.0000   1.0000   1.0000   1.0000
     1.0000   1.0000   1.0000   1.0000   1.0000   1.0000   1.0000   1.0000
     1.0000   1.0000   1.0000   1.0000   1.0000   1.0000   1.0000   1.0000
     1.0000   1.0000   1.0000   1.0000   1.0000   1.0000   1.0000   1.0000
     1.0000   1.0000   1.0000   1.0000   1.0000   1.0000   1.0000   1.0000
     1.0000   1.0000   1.0000   1.0000   1.0000   1.0000   1.0000   1.0000
     1.0000   1.0000   1.0000   1.0000   1.0000   1.0000   1.0000   1.0000
     1.0000   1.0000   1.0000   1.0000   1.0000   1.0000   1.0000   1.0000
     1.0000   1.0000   1.0000   1.0000   1.0000   1.0000   1.0000   1.0000
     1.0000   1.0000   1.0000   1.0000   1.0000   1.0000   1.0000   1.0000
     1.0000   1.0000   1.0000   1.0000   1.0000   1.0000   1.0000   1.0000
     1.0000   1.0000   1.0000   1.0000   1.0000   1.0000   1.0000   1.0000
     1.0000   1.0000   1.0000   1.0000   1.0000   1.0000   1.0000   1.0000
     1.0000   1.0000   1.0000   1.0000   1.0000   1.0000   1.0000   1.0000
     1.0000   1.0000   1.0000   1.0000   1.0000   1.0000   1.0000   1.0000
     1.0000   1.0000   1.0000   1.0000   1.0000   1.0000   1.0000   1.0000
     1.0000   1.0000   1.0000   1.0000   1.0000   1.0000   1.0000   1.0000
     1.0000   1.0000   1.0000   1.0000   1.0000   1.0000   1.0000   1.0000
     1.0000   1.0000   1.0000   1.0000   1.0000   1.0000   1.0000   1.0000
     1.0000   1.0000   1.0000   1.0000   1.0000   1.0000   1.0000   1.0000
     1.0000   1.0000   1.0000   1.0000   1.0000   1.0000   1.0000   1.0000
     1.0000   1.0000   1.0000   1.0000   1.0000   1.0000   1.0000   1.0000
     1.0000   1.0000   1.0000   1.0000   1.0000   1.0000   1.0000   1.0000
     1.0000   1.0000   1.0000   1.0000   1.0000   1.0000   1.0000   1.0000
     1.0000   1.0000   1.0000   1.0000   1.0000   1.0000   1.0000   1.0000
     1.0000   1.0000   1.0000   1.0000   1.0000   1.0000   1.0000   1.0000
     1.0000   1.0000   1.0000   1.0000   1.0000   1.0000   1.0000   1.0000
     1.0000   1.0000   1.0000   1.0000   1.0000   1.0000   1.0000   1.0000
     1.0000   0.9999   0.9999   0.9999   0.9997   0.9997   0.9996   0.9995
     0.9994   0.9984   0.9977   0.9972   0.9970   0.9967   0.9964   0.9955
     0.9946   0.9944   0.9939   0.9931   0.9930   0.9923   0.9914   0.9906
     0.9831   0.9798   0.9777   0.9739   0.9722   0.9660   0.9623   0.9479
     0.9294   0.9198   0.9167   0.9016   0.8908   0.8793   0.8707   0.8673
     0.8619   0.8540   0.8440   0.8377   0.8274   0.8203   0.8135   0.8067
     0.7917   0.7701   0.7609   0.7527   0.7494   0.7382   0.7312   0.7185
     0.7032   0.6972   0.6819   0.6049   0.5111   0.4723   0.4656   0.4521
     0.4400   0.4257   0.4145   0.4007   0.3774   0.3633   0.3513   0.3237
     0.2509   0.2132   0.1769   0.1569   0.1415   0.1278   0.1190   0.1150
     0.0900   0.0850   0.0792   0.0739   0.0660   0.0620   0.0601   0.0560
     0.0551   0.0353   0.0129   0.0114   0.0076   0.0073   0.0047   0.0021
     0.0010   0.0008   0.0003   0.0003   0.0002   0.0002   0.0001   0.0001
     0.0001   0.0001   0.0000   0.0000   0.0000   0.0000   0.0000   0.0000
     0.0000   0.0000   0.0000   0.0000   0.0000   0.0000   0.0000   0.0000
     0.0000   0.0000   0.0000   0.0000   0.0000   0.0000   0.0000   0.0000
     0.0000   0.0000   0.0000   0.0000   0.0000   0.0000   0.0000   0.0000
     0.0000   0.0000   0.0000   0.0000   0.0000   0.0000   0.0000   0.0000
     0.0000   0.0000   0.0000   0.0000   0.0000   0.0000   0.0000   0.0000
     0.0000   0.0000   0.0000   0.0000   0.0000   0.0000   0.0000   0.0000
     0.0000   0.0000   0.0000   0.0000   0.0000   0.0000   0.0000   0.0000
     0.0000   0.0000   0.0000   0.0000   0.0000   0.0000   0.0000   0.0000
     0.0000   0.0000   0.0000   0.0000   0.0000   0.0000   0.0000   0.0000
     0.0000   0.0000   0.0000   0.0000   0.0000   0.0000   0.0000   0.0000
     0.0000   0.0000   0.0000   0.0000   0.0000   0.0000   0.0000   0.0000
     0.0000   0.0000   0.0000   0.0000   0.0000   0.0000   0.0000   0.0000
     0.0000   0.0000   0.0000   0.0000   0.0000   0.0000   0.0000   0.0000
     0.0000   0.0000   0.0000   0.0000   0.0000   0.0000   0.0000   0.0000
     0.0000   0.0000   0.0000   0.0000   0.0000   0.0000   0.0000   0.0000
     0.0000   0.0000   0.0000   0.0000   0.0000   0.0000   0.0000   0.0000
     0.0000   0.0000   0.0000   0.0000   0.0000   0.0000   0.0000   0.0000

          k =-0.2500 0.1443 0.2850 (100631 PWs)   bands (ev):

   -69.1493 -69.1395 -69.0695 -69.0554 -69.0343 -69.0339 -69.0324 -69.0318
   -69.0190 -69.0185 -69.0185 -69.0181 -69.0164 -69.0160 -69.0131 -69.0127
   -69.0127 -69.0118 -69.0091 -69.0071 -69.0070 -69.0068 -69.0067 -69.0067
   -69.0065 -69.0064 -69.0062 -69.0047 -69.0044 -69.0043 -69.0041 -69.0014
   -68.9951 -68.9951 -68.9774 -68.9771 -68.6456 -68.6421 -68.6413 -68.6397
   -68.6393 -68.6365 -68.6365 -68.6360 -68.6360 -68.6345 -68.6344 -68.6341
   -68.6341 -68.6333 -68.6331 -68.6328 -68.6326 -68.6325 -68.6323 -68.6320
   -68.6320 -68.6319 -68.6316 -68.6314 -68.6314 -68.6311 -68.6311 -68.6308
   -68.6307 -68.6302 -68.6292 -68.6292 -68.6287 -68.6287 -68.6236 -68.6236
   -35.4825 -35.4063 -35.3481 -35.3043 -35.3036 -35.3033 -35.3029 -35.3002
   -35.2991 -35.2963 -35.2957 -35.2953 -35.2949 -35.2886 -35.2885 -35.2548
   -35.2400 -35.2379 -35.2369 -35.2365 -35.2357 -35.2354 -35.2348 -35.2309
   -35.2305 -35.2286 -35.2282 -35.2273 -35.2264 -35.2261 -35.2257 -35.2253
   -35.2244 -35.2240 -35.2195 -35.2189 -35.2176 -35.2172 -35.2166 -35.1875
   -35.1829 -35.1815 -35.1803 -35.1781 -35.1777 -35.1737 -35.1734 -35.1723
   -35.1720 -35.1717 -35.1715 -35.1711 -35.1706 -35.1703 -35.1692 -35.1689
   -35.1669 -35.1646 -35.1639 -35.1631 -35.1610 -35.1595 -35.1592 -35.1587
   -35.1582 -35.1568 -35.1565 -35.1552 -35.1545 -35.1536 -35.1374 -35.1358
   -35.1074 -35.1013 -35.0871 -35.0697 -35.0504 -35.0464 -35.0443 -35.0424
   -35.0379 -35.0358 -35.0314 -35.0310 -35.0283 -35.0271 -35.0265 -35.0249
   -35.0209 -35.0194 -35.0189 -35.0181 -35.0171 -35.0159 -35.0144 -35.0132
   -35.0130 -35.0123 -35.0113 -35.0107 -35.0086 -35.0080 -35.0049 -35.0026
   -34.9983 -34.9979 -34.9932 -34.9862 -34.8413 -34.8383 -34.8333 -34.8330
   -34.8311 -34.8304 -34.8274 -34.8269 -34.8262 -34.8259 -34.8255 -34.8249
   -34.8237 -34.8234 -34.8230 -34.8226 -34.8224 -34.8221 -34.8213 -34.8212
   -34.8209 -34.8206 -34.8203 -34.8197 -34.8195 -34.8187 -34.8184 -34.8182
   -34.8171 -34.8169 -34.8156 -34.8152 -34.8148 -34.8133 -34.8104 -34.8068
   -34.7666 -34.7666 -34.7655 -34.7647 -34.7636 -34.7631 -34.7624 -34.7616
   -34.7613 -34.7604 -34.7599 -34.7596 -34.7587 -34.7584 -34.7579 -34.7577
   -34.7570 -34.7569 -34.7564 -34.7563 -34.7561 -34.7556 -34.7554 -34.7553
   -34.7551 -34.7548 -34.7545 -34.7543 -34.7542 -34.7527 -34.7504 -34.7491
   -34.7475 -34.7464 -34.7405 -34.7383 -34.7085 -34.7012 -34.7003 -34.6985
   -34.6957 -34.6944 -34.6943 -34.6942 -34.6914 -34.6910 -34.6904 -34.6888
   -34.6881 -34.6878 -34.6855 -34.6839 -34.6835 -34.6817 -34.6806 -34.6795
   -34.6794 -34.6784 -34.6775 -34.6754 -34.6751 -34.6750 -34.6728 -34.6725
   -34.6723 -34.6722 -34.6719 -34.6717 -34.6711 -34.6707 -34.6634 -34.6630
     3.4105   3.9389   3.9916   4.2165   4.2423   4.4663   4.6461   4.7012
     4.7022   4.7054   4.8604   4.8876   5.0693   5.0951   5.2224   5.2420
     5.3010   5.3086   5.3545   5.3682   5.4298   5.4529   5.5414   5.5640
     5.5850   5.5938   5.6011   5.6333   5.6433   5.7058   5.7878   5.8839
     5.8973   5.9735   6.0051   6.2541   8.7034   9.8200   9.8766   9.9185
     9.9526  10.0147  10.1206  10.1586  10.2187  10.2255  10.2275  10.2683
    10.2847  10.3639  10.4430  10.5771  10.6910  10.7447  10.7495  10.7514
    10.7929  10.8158  10.8388  10.8487  10.8601  10.9150  11.0318  11.0661
    11.0998  11.1789  11.2042  11.2652  11.3138  11.4171  11.4420  11.4631
    11.4681  11.5274  11.5592  11.6077  11.6597  11.6904  11.7635  11.8059
    11.8448  11.8708  11.8753  11.9404  12.1099  12.2170  12.2323  12.2507
    12.2665  12.2692  12.2792  12.3109  12.3286  12.3788  12.3811  12.3951
    12.4002  12.4375  12.4452  12.4606  12.4748  12.4795  12.5251  12.5650
    12.5891  12.5955  12.6196  12.6524  12.6895  12.6977  12.7330  12.7410
    12.7848  12.8328  12.8505  12.8532  12.8688  12.8921  12.9125  12.9271
    12.9865  13.0139  13.0256  13.0806  13.1258  13.1546  13.1597  13.1912
    13.2316  13.2376  13.2471  13.2674  13.2744  13.3024  13.3368  13.3479
    13.3526  13.3921  13.4092  13.4158  13.4252  13.6606  13.6966  13.7029
    13.7658  14.5053  14.5393  14.5857  14.6046  14.6091  14.6300  14.6435
    14.6581  14.6918  14.6950  14.7013  14.7132  14.7304  14.7404  14.7549
    14.7762  14.7827  14.7870  14.7943  14.8070  14.8146  14.8185  14.8209
    14.8323  14.8538  14.8652  14.8752  14.8831  14.8906  14.9080  14.9137
    14.9235  14.9268  14.9324  14.9383  14.9427  14.9457  14.9697  14.9809
    15.0228  15.0470  15.0501  15.0546  15.0709  15.0801  15.0864  15.0973
    15.1042  15.1184  15.1716  15.2008  15.2033  15.2076  15.2210  15.2396
    15.2453  15.2576  15.3084  15.3107  15.3278  15.3339  15.3529  15.3580
    15.3691  15.3744  15.3884  15.3985  15.4235  15.4435  15.4981  15.5080
    15.5105  15.5127  15.5499  15.6150  15.6203  15.6384  15.6636  15.6679
    15.7151  15.7684  15.8229  15.8773  15.9373  15.9447  15.9638  15.9780
    15.9933  16.0074  16.0109  16.0156  16.0253  16.0284  16.0383  16.0502
    16.0532  16.0633  16.0709  16.0763  16.0788  16.0825  16.1131  16.1191
    16.1750  16.1955  16.2010  16.2062  16.2225  16.2350  16.2465  16.3082
    16.3156  16.3343  16.3428  16.3484  16.3522  16.3613  16.3676  16.4002
    16.4573  16.4672  16.4763  16.4780  16.5460  16.5544  16.5741  16.5791
    16.5938  16.6313  16.6607  16.6849  16.6869  16.6925  16.7003  16.7134
    16.7166  16.7261  16.7299  16.7364  16.7406  16.7481  16.7535  16.7582
    16.8097  16.8119  16.8276  16.8290  16.8461  16.8585  16.8701  16.9008
    16.9246  16.9440  16.9458  16.9621  16.9783  16.9873  16.9978  16.9992
    17.0041  17.0110  17.0138  17.0173  17.0270  17.0310  17.0442  17.0492
    17.0547  17.0635  17.0740  17.0782  17.0827  17.0908  17.0923  17.1025
    17.1059  17.1110  17.1191  17.1654  17.2075  17.2132  17.2352  17.2389
    17.2439  17.2524  17.2554  17.2600  17.2757  17.2772  17.2829  17.2986
    17.3433  17.3645  17.3945  17.4081  17.4178  17.4340  17.4390  17.4445
    17.4680  17.4742  17.4845  17.4908  17.5023  17.5040  17.5125  17.5195
    17.5208  17.5610  17.6447  17.6487  17.6784  17.6834  17.7112  17.7646
    17.7983  17.8294  17.8703  17.8731  17.8881  17.8957  17.9147  17.9241
    17.9366  17.9574  17.9682  17.9746  17.9839  17.9877  17.9936  18.0083
    18.0128  18.0200  18.0208  18.0281  18.0312  18.0316  18.0360  18.0398
    18.0453  18.0460  18.0496  18.0520  18.0621  18.0706  18.0773  18.0820
    18.0883  18.0916  18.0982  18.1012  18.1030  18.1185  18.1223  18.1596
    18.1679  18.1797  18.1806  18.1876  18.1891  18.1919  18.2002  18.2031
    18.2080  18.2183  18.2382  18.2454  18.2626  18.2659  18.2673  18.2910
    18.3002  18.3281  18.3301  18.3452  18.3647  18.3816  18.3936  18.4029
    18.4095  18.4133  18.4151  18.4362  18.4377  18.4483  18.4726  18.5107
    18.5178  18.5706  18.6203  18.7802  18.8774  18.9221  18.9945  19.0377
    19.0532  19.0790  19.0876  19.1415  19.1650  19.2341  19.2529  19.2595
    19.2695  19.2791  19.2925  19.2978  19.3151  19.3354  19.4554  19.4812
    19.4878  19.5415  19.5546  19.5757  19.5975  19.6242  19.6615  19.6816
    19.6901  19.6945  19.7103  19.7268  19.7401  19.7843  19.8192  19.8234
    19.8282  19.9187  19.9355  19.9968  20.0106  20.0300  20.0798  20.0892
    20.1243  20.1285  20.1590  20.1720  20.1914  20.2290  20.3109  20.4001
    20.4152  20.4260  20.4329  20.4975  20.5086  20.5096  20.5768  20.5998
    20.6255  20.6358  20.7332  20.7659  20.7801  20.8025  21.0641  21.1580
    21.3328  21.3801  21.4533  21.4714  21.4853  21.8220  21.9223  21.9499

     occupation numbers 
     1.0000   1.0000   1.0000   1.0000   1.0000   1.0000   1.0000   1.0000
     1.0000   1.0000   1.0000   1.0000   1.0000   1.0000   1.0000   1.0000
     1.0000   1.0000   1.0000   1.0000   1.0000   1.0000   1.0000   1.0000
     1.0000   1.0000   1.0000   1.0000   1.0000   1.0000   1.0000   1.0000
     1.0000   1.0000   1.0000   1.0000   1.0000   1.0000   1.0000   1.0000
     1.0000   1.0000   1.0000   1.0000   1.0000   1.0000   1.0000   1.0000
     1.0000   1.0000   1.0000   1.0000   1.0000   1.0000   1.0000   1.0000
     1.0000   1.0000   1.0000   1.0000   1.0000   1.0000   1.0000   1.0000
     1.0000   1.0000   1.0000   1.0000   1.0000   1.0000   1.0000   1.0000
     1.0000   1.0000   1.0000   1.0000   1.0000   1.0000   1.0000   1.0000
     1.0000   1.0000   1.0000   1.0000   1.0000   1.0000   1.0000   1.0000
     1.0000   1.0000   1.0000   1.0000   1.0000   1.0000   1.0000   1.0000
     1.0000   1.0000   1.0000   1.0000   1.0000   1.0000   1.0000   1.0000
     1.0000   1.0000   1.0000   1.0000   1.0000   1.0000   1.0000   1.0000
     1.0000   1.0000   1.0000   1.0000   1.0000   1.0000   1.0000   1.0000
     1.0000   1.0000   1.0000   1.0000   1.0000   1.0000   1.0000   1.0000
     1.0000   1.0000   1.0000   1.0000   1.0000   1.0000   1.0000   1.0000
     1.0000   1.0000   1.0000   1.0000   1.0000   1.0000   1.0000   1.0000
     1.0000   1.0000   1.0000   1.0000   1.0000   1.0000   1.0000   1.0000
     1.0000   1.0000   1.0000   1.0000   1.0000   1.0000   1.0000   1.0000
     1.0000   1.0000   1.0000   1.0000   1.0000   1.0000   1.0000   1.0000
     1.0000   1.0000   1.0000   1.0000   1.0000   1.0000   1.0000   1.0000
     1.0000   1.0000   1.0000   1.0000   1.0000   1.0000   1.0000   1.0000
     1.0000   1.0000   1.0000   1.0000   1.0000   1.0000   1.0000   1.0000
     1.0000   1.0000   1.0000   1.0000   1.0000   1.0000   1.0000   1.0000
     1.0000   1.0000   1.0000   1.0000   1.0000   1.0000   1.0000   1.0000
     1.0000   1.0000   1.0000   1.0000   1.0000   1.0000   1.0000   1.0000
     1.0000   1.0000   1.0000   1.0000   1.0000   1.0000   1.0000   1.0000
     1.0000   1.0000   1.0000   1.0000   1.0000   1.0000   1.0000   1.0000
     1.0000   1.0000   1.0000   1.0000   1.0000   1.0000   1.0000   1.0000
     1.0000   1.0000   1.0000   1.0000   1.0000   1.0000   1.0000   1.0000
     1.0000   1.0000   1.0000   1.0000   1.0000   1.0000   1.0000   1.0000
     1.0000   1.0000   1.0000   1.0000   1.0000   1.0000   1.0000   1.0000
     1.0000   1.0000   1.0000   1.0000   1.0000   1.0000   1.0000   1.0000
     1.0000   1.0000   1.0000   1.0000   1.0000   1.0000   1.0000   1.0000
     1.0000   1.0000   1.0000   1.0000   1.0000   1.0000   1.0000   1.0000
     1.0000   1.0000   1.0000   1.0000   1.0000   1.0000   1.0000   1.0000
     1.0000   1.0000   1.0000   1.0000   1.0000   1.0000   1.0000   1.0000
     1.0000   1.0000   1.0000   1.0000   1.0000   1.0000   1.0000   1.0000
     1.0000   1.0000   1.0000   1.0000   1.0000   1.0000   1.0000   1.0000
     1.0000   1.0000   1.0000   1.0000   1.0000   1.0000   1.0000   1.0000
     1.0000   1.0000   1.0000   1.0000   1.0000   1.0000   1.0000   1.0000
     1.0000   1.0000   1.0000   1.0000   1.0000   1.0000   1.0000   1.0000
     1.0000   1.0000   1.0000   1.0000   1.0000   1.0000   1.0000   1.0000
     1.0000   1.0000   1.0000   1.0000   1.0000   1.0000   1.0000   1.0000
     1.0000   1.0000   1.0000   1.0000   1.0000   1.0000   1.0000   1.0000
     1.0000   1.0000   1.0000   1.0000   1.0000   1.0000   1.0000   1.0000
     1.0000   1.0000   1.0000   1.0000   1.0000   1.0000   1.0000   1.0000
     1.0000   1.0000   1.0000   1.0000   1.0000   1.0000   1.0000   1.0000
     1.0000   1.0000   1.0000   1.0000   1.0000   1.0000   1.0000   1.0000
     1.0000   1.0000   1.0000   1.0000   1.0000   1.0000   1.0000   1.0000
     1.0000   1.0000   1.0000   1.0000   1.0000   1.0000   1.0000   1.0000
     1.0000   1.0000   1.0000   1.0000   1.0000   1.0000   1.0000   1.0000
     1.0000   1.0000   1.0000   1.0000   1.0000   1.0000   1.0000   1.0000
     1.0000   1.0000   1.0000   1.0000   1.0000   1.0000   1.0000   1.0000
     1.0000   1.0000   1.0000   1.0000   1.0000   1.0000   1.0000   1.0000
     1.0000   1.0000   1.0000   1.0000   1.0000   1.0000   1.0000   1.0000
     1.0000   1.0000   1.0000   1.0000   1.0000   1.0000   1.0000   1.0000
     1.0000   1.0000   1.0000   1.0000   1.0000   1.0000   1.0000   1.0000
     1.0000   1.0000   1.0000   1.0000   1.0000   1.0000   1.0000   1.0000
     1.0000   1.0000   1.0000   1.0000   1.0000   1.0000   1.0000   1.0000
     1.0000   1.0000   1.0000   1.0000   1.0000   1.0000   1.0000   1.0000
     1.0000   1.0000   1.0000   1.0000   1.0000   1.0000   1.0000   1.0000
     1.0000   1.0000   1.0000   1.0000   1.0000   1.0000   1.0000   1.0000
     1.0000   1.0000   1.0000   1.0000   1.0000   1.0000   1.0000   1.0000
     1.0000   1.0000   1.0000   1.0000   1.0000   1.0000   1.0000   1.0000
     1.0000   1.0000   1.0000   1.0000   1.0000   1.0000   1.0000   1.0000
     1.0000   1.0000   1.0000   1.0000   1.0000   1.0000   1.0000   1.0000
     1.0000   1.0000   1.0000   1.0000   1.0000   1.0000   1.0000   1.0000
     1.0000   0.9999   0.9999   0.9999   0.9997   0.9997   0.9995   0.9995
     0.9993   0.9987   0.9979   0.9969   0.9968   0.9965   0.9961   0.9952
     0.9950   0.9942   0.9939   0.9933   0.9929   0.9921   0.9914   0.9908
     0.9818   0.9813   0.9772   0.9768   0.9714   0.9670   0.9623   0.9472
     0.9325   0.9183   0.9169   0.9031   0.8879   0.8788   0.8674   0.8658
     0.8603   0.8521   0.8487   0.8444   0.8320   0.8269   0.8086   0.8015
     0.7934   0.7802   0.7636   0.7569   0.7495   0.7359   0.7333   0.7156
     0.7096   0.7005   0.6857   0.5959   0.5096   0.4979   0.4523   0.4448
     0.4345   0.4171   0.4111   0.4018   0.3706   0.3677   0.3566   0.3266
     0.2478   0.2143   0.1716   0.1543   0.1426   0.1245   0.1192   0.1137
     0.0919   0.0866   0.0785   0.0738   0.0658   0.0647   0.0593   0.0551
     0.0543   0.0349   0.0123   0.0116   0.0077   0.0072   0.0048   0.0020
     0.0012   0.0007   0.0003   0.0003   0.0002   0.0002   0.0001   0.0001
     0.0001   0.0001   0.0000   0.0000   0.0000   0.0000   0.0000   0.0000
     0.0000   0.0000   0.0000   0.0000   0.0000   0.0000   0.0000   0.0000
     0.0000   0.0000   0.0000   0.0000   0.0000   0.0000   0.0000   0.0000
     0.0000   0.0000   0.0000   0.0000   0.0000   0.0000   0.0000   0.0000
     0.0000   0.0000   0.0000   0.0000   0.0000   0.0000   0.0000   0.0000
     0.0000   0.0000   0.0000   0.0000   0.0000   0.0000   0.0000   0.0000
     0.0000   0.0000   0.0000   0.0000   0.0000   0.0000   0.0000   0.0000
     0.0000   0.0000   0.0000   0.0000   0.0000   0.0000   0.0000   0.0000
     0.0000   0.0000   0.0000   0.0000   0.0000   0.0000   0.0000   0.0000
     0.0000   0.0000   0.0000   0.0000   0.0000   0.0000   0.0000   0.0000
     0.0000   0.0000   0.0000   0.0000   0.0000   0.0000   0.0000   0.0000
     0.0000   0.0000   0.0000   0.0000   0.0000   0.0000   0.0000   0.0000
     0.0000   0.0000   0.0000   0.0000   0.0000   0.0000   0.0000   0.0000
     0.0000   0.0000   0.0000   0.0000   0.0000   0.0000   0.0000   0.0000
     0.0000   0.0000   0.0000   0.0000   0.0000   0.0000   0.0000   0.0000
     0.0000   0.0000   0.0000   0.0000   0.0000   0.0000   0.0000   0.0000
     0.0000   0.0000   0.0000   0.0000   0.0000   0.0000   0.0000   0.0000
     0.0000   0.0000   0.0000   0.0000   0.0000   0.0000   0.0000   0.0000

          k =-0.2500 0.1443-0.5700 (100576 PWs)   bands (ev):

   -69.1493 -69.1395 -69.0695 -69.0554 -69.0343 -69.0339 -69.0324 -69.0318
   -69.0190 -69.0185 -69.0185 -69.0181 -69.0163 -69.0160 -69.0131 -69.0127
   -69.0127 -69.0118 -69.0091 -69.0071 -69.0070 -69.0068 -69.0067 -69.0067
   -69.0065 -69.0064 -69.0062 -69.0047 -69.0044 -69.0043 -69.0040 -69.0014
   -68.9951 -68.9951 -68.9774 -68.9771 -68.6456 -68.6421 -68.6413 -68.6397
   -68.6393 -68.6365 -68.6365 -68.6360 -68.6360 -68.6345 -68.6344 -68.6341
   -68.6341 -68.6333 -68.6331 -68.6328 -68.6326 -68.6325 -68.6323 -68.6320
   -68.6320 -68.6319 -68.6316 -68.6314 -68.6314 -68.6311 -68.6311 -68.6307
   -68.6307 -68.6302 -68.6292 -68.6292 -68.6287 -68.6287 -68.6236 -68.6236
   -35.4825 -35.4063 -35.3481 -35.3042 -35.3037 -35.3033 -35.3029 -35.3002
   -35.2991 -35.2964 -35.2957 -35.2951 -35.2949 -35.2886 -35.2885 -35.2548
   -35.2401 -35.2382 -35.2371 -35.2365 -35.2355 -35.2350 -35.2346 -35.2310
   -35.2301 -35.2283 -35.2281 -35.2278 -35.2267 -35.2262 -35.2257 -35.2253
   -35.2245 -35.2237 -35.2197 -35.2187 -35.2177 -35.2172 -35.2165 -35.1875
   -35.1830 -35.1814 -35.1806 -35.1781 -35.1775 -35.1735 -35.1723 -35.1722
   -35.1718 -35.1716 -35.1712 -35.1711 -35.1708 -35.1705 -35.1698 -35.1694
   -35.1666 -35.1648 -35.1639 -35.1632 -35.1610 -35.1595 -35.1591 -35.1584
   -35.1577 -35.1575 -35.1562 -35.1560 -35.1542 -35.1533 -35.1374 -35.1358
   -35.1075 -35.1014 -35.0871 -35.0699 -35.0502 -35.0475 -35.0445 -35.0427
   -35.0381 -35.0352 -35.0312 -35.0302 -35.0277 -35.0276 -35.0264 -35.0252
   -35.0216 -35.0193 -35.0183 -35.0181 -35.0169 -35.0159 -35.0132 -35.0125
   -35.0122 -35.0115 -35.0106 -35.0106 -35.0085 -35.0071 -35.0060 -35.0039
   -34.9994 -34.9990 -34.9930 -34.9865 -34.8421 -34.8377 -34.8344 -34.8334
   -34.8317 -34.8307 -34.8274 -34.8265 -34.8261 -34.8257 -34.8250 -34.8249
   -34.8240 -34.8234 -34.8229 -34.8227 -34.8224 -34.8213 -34.8211 -34.8208
   -34.8206 -34.8201 -34.8200 -34.8196 -34.8194 -34.8187 -34.8186 -34.8174
   -34.8165 -34.8164 -34.8158 -34.8156 -34.8139 -34.8124 -34.8114 -34.8106
   -34.7663 -34.7652 -34.7641 -34.7629 -34.7627 -34.7617 -34.7614 -34.7603
   -34.7602 -34.7600 -34.7597 -34.7595 -34.7593 -34.7588 -34.7587 -34.7585
   -34.7580 -34.7576 -34.7573 -34.7572 -34.7568 -34.7567 -34.7563 -34.7563
   -34.7561 -34.7557 -34.7553 -34.7552 -34.7552 -34.7523 -34.7496 -34.7483
   -34.7464 -34.7453 -34.7409 -34.7379 -34.7085 -34.7013 -34.7001 -34.6985
   -34.6957 -34.6944 -34.6943 -34.6942 -34.6914 -34.6909 -34.6904 -34.6888
   -34.6881 -34.6877 -34.6854 -34.6839 -34.6835 -34.6817 -34.6806 -34.6795
   -34.6791 -34.6787 -34.6774 -34.6753 -34.6751 -34.6750 -34.6727 -34.6727
   -34.6722 -34.6722 -34.6719 -34.6717 -34.6710 -34.6706 -34.6635 -34.6630
     3.5977   3.6493   4.1401   4.1857   4.3771   4.4222   4.4236   4.4255
     4.8027   4.8567   4.8597   4.8598   5.0292   5.0300   5.1616   5.4140
     5.4148   5.4237   5.4253   5.4672   5.4917   5.5174   5.5213   5.5423
     5.5538   5.5591   5.5690   5.5707   5.5763   5.5901   5.8733   5.8786
     5.9253   5.9405   6.0204   6.2965   8.6965   9.8335   9.8617   9.9777
     9.9839   9.9911  10.0034  10.0335  10.0375  10.0403  10.0451  10.0519
    10.0569  10.3629  10.5842  10.6013  10.6237  10.6732  10.7240  10.7418
    10.7668  10.7774  10.7949  10.8113  10.8169  10.8235  10.9848  11.1222
    11.2212  11.2263  11.2307  11.3516  11.5135  11.5425  11.5476  11.5632
    11.5888  11.5942  11.6215  11.6622  11.6750  11.8149  11.8678  12.0715
    12.0907  12.1216  12.1309  12.1573  12.1961  12.1969  12.2041  12.2398
    12.3172  12.3195  12.3345  12.3418  12.3884  12.4401  12.4418  12.4601
    12.4758  12.4957  12.5445  12.5749  12.6459  12.6483  12.6551  12.6591
    12.6641  12.6679  12.6877  12.6913  12.6957  12.7128  12.7183  12.7194
    12.7359  12.7605  12.7647  12.7737  12.8071  12.8126  12.8220  12.8505
    12.8548  12.8584  12.8622  12.8714  12.8763  13.0087  13.0216  13.0582
    13.0768  13.0776  13.0873  13.1356  13.1589  13.1712  13.2187  13.2297
    13.2884  13.2946  13.5385  13.5402  13.5568  13.5579  13.5611  13.5617
    13.6543  14.5480  14.5717  14.5961  14.6427  14.6594  14.6701  14.6870
    14.6911  14.6938  14.6981  14.7225  14.7248  14.7257  14.7366  14.7397
    14.7454  14.7483  14.7510  14.7553  14.7788  14.7973  14.8008  14.8447
    14.8491  14.8763  14.8807  14.9015  14.9026  14.9231  14.9254  14.9407
    14.9454  14.9566  14.9584  14.9787  14.9829  14.9869  14.9944  14.9949
    15.0202  15.0334  15.0362  15.0481  15.0552  15.0563  15.0591  15.0615
    15.0892  15.1101  15.1132  15.1167  15.1300  15.1610  15.2010  15.2611
    15.2637  15.2692  15.2747  15.2794  15.2822  15.3296  15.3356  15.3410
    15.3471  15.3536  15.4010  15.4053  15.4115  15.4156  15.4164  15.4699
    15.4721  15.5011  15.5149  15.5223  15.7281  15.7397  15.7730  15.7856
    15.7866  15.7892  15.7906  15.7921  15.8445  15.8457  15.9145  15.9317
    15.9814  16.0045  16.0328  16.0478  16.0580  16.0692  16.0732  16.0758
    16.0761  16.0869  16.0925  16.1007  16.1193  16.1262  16.1851  16.2139
    16.2375  16.2452  16.2474  16.2490  16.2514  16.2530  16.2926  16.3423
    16.3578  16.3686  16.3746  16.3792  16.3795  16.3867  16.4338  16.4350
    16.4395  16.4481  16.4574  16.5602  16.5645  16.5693  16.5788  16.5853
    16.5858  16.6347  16.6585  16.6879  16.6956  16.6984  16.7070  16.7123
    16.7150  16.7163  16.7204  16.7330  16.7358  16.7609  16.7881  16.7949
    16.7972  16.8015  16.8138  16.8210  16.8378  16.8408  16.8496  16.8510
    16.8872  16.8946  16.9151  16.9309  16.9491  16.9576  16.9602  16.9624
    16.9694  16.9712  16.9774  16.9862  16.9890  17.0012  17.0057  17.0164
    17.0244  17.0362  17.0763  17.0897  17.1069  17.1189  17.1292  17.1346
    17.1460  17.1465  17.1498  17.1633  17.1678  17.1745  17.1767  17.1846
    17.1850  17.1942  17.1972  17.2127  17.2288  17.2431  17.2570  17.2607
    17.3183  17.3555  17.3629  17.4012  17.4150  17.4168  17.4212  17.4425
    17.4719  17.4858  17.4894  17.5061  17.5152  17.5211  17.5600  17.5645
    17.5680  17.5715  17.5786  17.5840  17.6162  17.6291  17.7706  17.7792
    17.7917  17.8079  17.9005  17.9010  17.9121  17.9273  17.9356  17.9465
    17.9532  17.9549  17.9586  17.9610  17.9743  17.9853  17.9958  18.0082
    18.0144  18.0174  18.0226  18.0251  18.0299  18.0314  18.0316  18.0366
    18.0424  18.0487  18.0525  18.0541  18.0617  18.0663  18.0669  18.0702
    18.0941  18.0961  18.1003  18.1022  18.1085  18.1270  18.1298  18.1904
    18.1911  18.1924  18.1971  18.1976  18.2002  18.2086  18.2111  18.2129
    18.2259  18.2323  18.2455  18.2625  18.2715  18.2767  18.2815  18.3092
    18.3178  18.3339  18.4035  18.4184  18.4226  18.4243  18.4319  18.4325
    18.4357  18.4413  18.4435  18.4478  18.4758  18.4759  18.4820  18.4855
    18.6031  18.6105  18.6144  18.6570  18.8815  18.8871  18.9719  19.0627
    19.0631  19.0826  19.0829  19.0853  19.0913  19.1311  19.1848  19.2172
    19.2249  19.2773  19.2931  19.3196  19.3259  19.3304  19.4771  19.4796
    19.4856  19.4945  19.5181  19.5693  19.5975  19.6011  19.6100  19.6177
    19.6355  19.6394  19.6861  19.7667  19.8396  19.8532  19.8636  19.8803
    19.9190  19.9361  19.9403  19.9498  19.9716  19.9799  19.9885  20.1453
    20.1807  20.1884  20.2468  20.2518  20.2592  20.2598  20.3056  20.3139
    20.3382  20.3396  20.3477  20.3683  20.3724  20.3751  20.3806  20.3991
    20.4419  20.4603  20.6713  20.7028  20.9672  20.9957  21.0160  21.0587
    21.2048  21.2979  21.3200  21.3285  21.4671  21.6734  22.0053  22.3233

     occupation numbers 
     1.0000   1.0000   1.0000   1.0000   1.0000   1.0000   1.0000   1.0000
     1.0000   1.0000   1.0000   1.0000   1.0000   1.0000   1.0000   1.0000
     1.0000   1.0000   1.0000   1.0000   1.0000   1.0000   1.0000   1.0000
     1.0000   1.0000   1.0000   1.0000   1.0000   1.0000   1.0000   1.0000
     1.0000   1.0000   1.0000   1.0000   1.0000   1.0000   1.0000   1.0000
     1.0000   1.0000   1.0000   1.0000   1.0000   1.0000   1.0000   1.0000
     1.0000   1.0000   1.0000   1.0000   1.0000   1.0000   1.0000   1.0000
     1.0000   1.0000   1.0000   1.0000   1.0000   1.0000   1.0000   1.0000
     1.0000   1.0000   1.0000   1.0000   1.0000   1.0000   1.0000   1.0000
     1.0000   1.0000   1.0000   1.0000   1.0000   1.0000   1.0000   1.0000
     1.0000   1.0000   1.0000   1.0000   1.0000   1.0000   1.0000   1.0000
     1.0000   1.0000   1.0000   1.0000   1.0000   1.0000   1.0000   1.0000
     1.0000   1.0000   1.0000   1.0000   1.0000   1.0000   1.0000   1.0000
     1.0000   1.0000   1.0000   1.0000   1.0000   1.0000   1.0000   1.0000
     1.0000   1.0000   1.0000   1.0000   1.0000   1.0000   1.0000   1.0000
     1.0000   1.0000   1.0000   1.0000   1.0000   1.0000   1.0000   1.0000
     1.0000   1.0000   1.0000   1.0000   1.0000   1.0000   1.0000   1.0000
     1.0000   1.0000   1.0000   1.0000   1.0000   1.0000   1.0000   1.0000
     1.0000   1.0000   1.0000   1.0000   1.0000   1.0000   1.0000   1.0000
     1.0000   1.0000   1.0000   1.0000   1.0000   1.0000   1.0000   1.0000
     1.0000   1.0000   1.0000   1.0000   1.0000   1.0000   1.0000   1.0000
     1.0000   1.0000   1.0000   1.0000   1.0000   1.0000   1.0000   1.0000
     1.0000   1.0000   1.0000   1.0000   1.0000   1.0000   1.0000   1.0000
     1.0000   1.0000   1.0000   1.0000   1.0000   1.0000   1.0000   1.0000
     1.0000   1.0000   1.0000   1.0000   1.0000   1.0000   1.0000   1.0000
     1.0000   1.0000   1.0000   1.0000   1.0000   1.0000   1.0000   1.0000
     1.0000   1.0000   1.0000   1.0000   1.0000   1.0000   1.0000   1.0000
     1.0000   1.0000   1.0000   1.0000   1.0000   1.0000   1.0000   1.0000
     1.0000   1.0000   1.0000   1.0000   1.0000   1.0000   1.0000   1.0000
     1.0000   1.0000   1.0000   1.0000   1.0000   1.0000   1.0000   1.0000
     1.0000   1.0000   1.0000   1.0000   1.0000   1.0000   1.0000   1.0000
     1.0000   1.0000   1.0000   1.0000   1.0000   1.0000   1.0000   1.0000
     1.0000   1.0000   1.0000   1.0000   1.0000   1.0000   1.0000   1.0000
     1.0000   1.0000   1.0000   1.0000   1.0000   1.0000   1.0000   1.0000
     1.0000   1.0000   1.0000   1.0000   1.0000   1.0000   1.0000   1.0000
     1.0000   1.0000   1.0000   1.0000   1.0000   1.0000   1.0000   1.0000
     1.0000   1.0000   1.0000   1.0000   1.0000   1.0000   1.0000   1.0000
     1.0000   1.0000   1.0000   1.0000   1.0000   1.0000   1.0000   1.0000
     1.0000   1.0000   1.0000   1.0000   1.0000   1.0000   1.0000   1.0000
     1.0000   1.0000   1.0000   1.0000   1.0000   1.0000   1.0000   1.0000
     1.0000   1.0000   1.0000   1.0000   1.0000   1.0000   1.0000   1.0000
     1.0000   1.0000   1.0000   1.0000   1.0000   1.0000   1.0000   1.0000
     1.0000   1.0000   1.0000   1.0000   1.0000   1.0000   1.0000   1.0000
     1.0000   1.0000   1.0000   1.0000   1.0000   1.0000   1.0000   1.0000
     1.0000   1.0000   1.0000   1.0000   1.0000   1.0000   1.0000   1.0000
     1.0000   1.0000   1.0000   1.0000   1.0000   1.0000   1.0000   1.0000
     1.0000   1.0000   1.0000   1.0000   1.0000   1.0000   1.0000   1.0000
     1.0000   1.0000   1.0000   1.0000   1.0000   1.0000   1.0000   1.0000
     1.0000   1.0000   1.0000   1.0000   1.0000   1.0000   1.0000   1.0000
     1.0000   1.0000   1.0000   1.0000   1.0000   1.0000   1.0000   1.0000
     1.0000   1.0000   1.0000   1.0000   1.0000   1.0000   1.0000   1.0000
     1.0000   1.0000   1.0000   1.0000   1.0000   1.0000   1.0000   1.0000
     1.0000   1.0000   1.0000   1.0000   1.0000   1.0000   1.0000   1.0000
     1.0000   1.0000   1.0000   1.0000   1.0000   1.0000   1.0000   1.0000
     1.0000   1.0000   1.0000   1.0000   1.0000   1.0000   1.0000   1.0000
     1.0000   1.0000   1.0000   1.0000   1.0000   1.0000   1.0000   1.0000
     1.0000   1.0000   1.0000   1.0000   1.0000   1.0000   1.0000   1.0000
     1.0000   1.0000   1.0000   1.0000   1.0000   1.0000   1.0000   1.0000
     1.0000   1.0000   1.0000   1.0000   1.0000   1.0000   1.0000   1.0000
     1.0000   1.0000   1.0000   1.0000   1.0000   1.0000   1.0000   1.0000
     1.0000   1.0000   1.0000   1.0000   1.0000   1.0000   1.0000   1.0000
     1.0000   1.0000   1.0000   1.0000   1.0000   1.0000   1.0000   1.0000
     1.0000   1.0000   1.0000   1.0000   1.0000   1.0000   1.0000   1.0000
     1.0000   1.0000   1.0000   1.0000   1.0000   1.0000   1.0000   1.0000
     1.0000   1.0000   1.0000   1.0000   1.0000   1.0000   1.0000   1.0000
     1.0000   1.0000   1.0000   1.0000   1.0000   1.0000   1.0000   1.0000
     1.0000   1.0000   1.0000   1.0000   1.0000   1.0000   1.0000   1.0000
     1.0000   1.0000   1.0000   1.0000   1.0000   1.0000   1.0000   1.0000
     1.0000   1.0000   1.0000   1.0000   1.0000   1.0000   1.0000   1.0000
     1.0000   1.0000   1.0000   0.9996   0.9996   0.9996   0.9995   0.9994
     0.9994   0.9987   0.9980   0.9968   0.9964   0.9962   0.9957   0.9953
     0.9951   0.9950   0.9947   0.9936   0.9933   0.9905   0.9862   0.9850
     0.9845   0.9836   0.9808   0.9790   0.9741   0.9732   0.9702   0.9698
     0.9544   0.9506   0.9387   0.9281   0.9143   0.9071   0.9048   0.9028
     0.8965   0.8948   0.8888   0.8799   0.8769   0.8636   0.8584   0.8455
     0.8354   0.8197   0.7600   0.7377   0.7079   0.6861   0.6668   0.6566
     0.6346   0.6336   0.6272   0.6002   0.5912   0.5776   0.5732   0.5570
     0.5562   0.5371   0.5310   0.4990   0.4657   0.4362   0.4078   0.4004
     0.2906   0.2281   0.2167   0.1630   0.1460   0.1438   0.1387   0.1157
     0.0885   0.0775   0.0748   0.0633   0.0577   0.0542   0.0353   0.0335
     0.0322   0.0309   0.0284   0.0267   0.0179   0.0151   0.0019   0.0016
     0.0013   0.0010   0.0002   0.0002   0.0001   0.0001   0.0001   0.0001
     0.0001   0.0001   0.0001   0.0000   0.0000   0.0000   0.0000   0.0000
     0.0000   0.0000   0.0000   0.0000   0.0000   0.0000   0.0000   0.0000
     0.0000   0.0000   0.0000   0.0000   0.0000   0.0000   0.0000   0.0000
     0.0000   0.0000   0.0000   0.0000   0.0000   0.0000   0.0000   0.0000
     0.0000   0.0000   0.0000   0.0000   0.0000   0.0000   0.0000   0.0000
     0.0000   0.0000   0.0000   0.0000   0.0000   0.0000   0.0000   0.0000
     0.0000   0.0000   0.0000   0.0000   0.0000   0.0000   0.0000   0.0000
     0.0000   0.0000   0.0000   0.0000   0.0000   0.0000   0.0000   0.0000
     0.0000   0.0000   0.0000   0.0000   0.0000   0.0000   0.0000   0.0000
     0.0000   0.0000   0.0000   0.0000   0.0000   0.0000   0.0000   0.0000
     0.0000   0.0000   0.0000   0.0000   0.0000   0.0000   0.0000   0.0000
     0.0000   0.0000   0.0000   0.0000   0.0000   0.0000   0.0000   0.0000
     0.0000   0.0000   0.0000   0.0000   0.0000   0.0000   0.0000   0.0000
     0.0000   0.0000   0.0000   0.0000   0.0000   0.0000   0.0000   0.0000
     0.0000   0.0000   0.0000   0.0000   0.0000   0.0000   0.0000   0.0000
     0.0000   0.0000   0.0000   0.0000   0.0000   0.0000   0.0000   0.0000
     0.0000   0.0000   0.0000   0.0000   0.0000   0.0000   0.0000   0.0000
     0.0000   0.0000   0.0000   0.0000   0.0000   0.0000   0.0000   0.0000

          k = 0.5000-0.2887 0.0000 (100622 PWs)   bands (ev):

   -69.1493 -69.1395 -69.0695 -69.0554 -69.0343 -69.0339 -69.0324 -69.0318
   -69.0190 -69.0185 -69.0185 -69.0181 -69.0164 -69.0160 -69.0131 -69.0127
   -69.0127 -69.0118 -69.0091 -69.0071 -69.0070 -69.0068 -69.0067 -69.0067
   -69.0065 -69.0064 -69.0062 -69.0047 -69.0044 -69.0043 -69.0041 -69.0014
   -68.9951 -68.9951 -68.9774 -68.9771 -68.6456 -68.6421 -68.6413 -68.6397
   -68.6393 -68.6365 -68.6365 -68.6360 -68.6360 -68.6345 -68.6344 -68.6341
   -68.6341 -68.6333 -68.6331 -68.6329 -68.6326 -68.6325 -68.6323 -68.6321
   -68.6320 -68.6319 -68.6316 -68.6314 -68.6314 -68.6311 -68.6311 -68.6308
   -68.6307 -68.6302 -68.6292 -68.6292 -68.6287 -68.6287 -68.6236 -68.6236
   -35.4825 -35.4063 -35.3481 -35.3038 -35.3038 -35.3034 -35.3029 -35.3002
   -35.2994 -35.2958 -35.2958 -35.2954 -35.2949 -35.2886 -35.2885 -35.2547
   -35.2400 -35.2375 -35.2361 -35.2360 -35.2360 -35.2355 -35.2347 -35.2311
   -35.2297 -35.2296 -35.2282 -35.2267 -35.2266 -35.2261 -35.2257 -35.2252
   -35.2247 -35.2242 -35.2205 -35.2199 -35.2178 -35.2175 -35.2164 -35.1873
   -35.1817 -35.1813 -35.1793 -35.1784 -35.1771 -35.1745 -35.1735 -35.1725
   -35.1720 -35.1716 -35.1713 -35.1711 -35.1707 -35.1702 -35.1690 -35.1685
   -35.1672 -35.1648 -35.1646 -35.1629 -35.1610 -35.1595 -35.1595 -35.1588
   -35.1585 -35.1570 -35.1554 -35.1553 -35.1543 -35.1542 -35.1373 -35.1359
   -35.1074 -35.1012 -35.0871 -35.0694 -35.0506 -35.0450 -35.0428 -35.0424
   -35.0388 -35.0345 -35.0336 -35.0318 -35.0315 -35.0265 -35.0258 -35.0239
   -35.0202 -35.0199 -35.0183 -35.0174 -35.0164 -35.0161 -35.0160 -35.0151
   -35.0146 -35.0131 -35.0115 -35.0110 -35.0078 -35.0066 -35.0039 -35.0023
   -34.9982 -34.9972 -34.9935 -34.9860 -34.8399 -34.8395 -34.8331 -34.8307
   -34.8300 -34.8298 -34.8293 -34.8265 -34.8265 -34.8258 -34.8256 -34.8254
   -34.8245 -34.8236 -34.8232 -34.8227 -34.8223 -34.8222 -34.8218 -34.8216
   -34.8214 -34.8206 -34.8203 -34.8202 -34.8198 -34.8192 -34.8190 -34.8184
   -34.8180 -34.8170 -34.8155 -34.8154 -34.8151 -34.8119 -34.8071 -34.8066
   -34.7681 -34.7676 -34.7661 -34.7659 -34.7646 -34.7638 -34.7621 -34.7616
   -34.7608 -34.7600 -34.7600 -34.7599 -34.7598 -34.7591 -34.7590 -34.7577
   -34.7568 -34.7566 -34.7561 -34.7558 -34.7556 -34.7556 -34.7544 -34.7542
   -34.7540 -34.7539 -34.7521 -34.7521 -34.7515 -34.7514 -34.7509 -34.7505
   -34.7499 -34.7490 -34.7399 -34.7391 -34.7074 -34.7029 -34.6985 -34.6972
   -34.6967 -34.6961 -34.6955 -34.6932 -34.6919 -34.6916 -34.6903 -34.6885
   -34.6880 -34.6878 -34.6863 -34.6842 -34.6836 -34.6813 -34.6799 -34.6797
   -34.6784 -34.6763 -34.6763 -34.6753 -34.6753 -34.6751 -34.6729 -34.6726
   -34.6725 -34.6724 -34.6721 -34.6718 -34.6715 -34.6714 -34.6634 -34.6632
     3.5309   3.5877   4.0854   4.1190   4.4995   4.5912   4.5960   4.5988
     4.8596   4.8918   4.9635   4.9962   4.9992   5.0049   5.0511   5.0686
     5.2070   5.2170   5.4403   5.4799   5.4867   5.4918   5.5556   5.5568
     5.6312   5.6313   5.6343   5.6377   5.6732   5.6767   5.6870   5.6927
     5.9911   5.9991   6.0002   6.0050   8.7201   9.9656   9.9970  10.1247
    10.1431  10.1608  10.1674  10.1715  10.3060  10.3459  10.3538  10.4004
    10.4330  10.4905  10.4961  10.4976  10.6703  10.7162  10.7178  10.7243
    10.7295  10.7556  10.7586  10.7677  10.8543  10.8602  10.8679  10.8701
    11.1248  11.1377  11.1430  11.1474  11.1705  11.2054  11.2950  11.4353
    11.4399  11.4457  11.4666  11.6424  11.6637  11.7467  11.7518  11.7543
    11.9270  11.9366  11.9492  11.9532  11.9560  11.9602  12.0108  12.0250
    12.0266  12.0295  12.2337  12.3119  12.3147  12.3308  12.3337  12.3542
    12.3624  12.3646  12.4938  12.4985  12.5008  12.5073  12.6156  12.6222
    12.6585  12.6618  12.7170  12.7285  12.7310  12.7361  12.7637  12.7691
    12.7744  12.8969  12.9068  12.9234  12.9367  12.9447  12.9448  12.9486
    12.9578  12.9583  12.9624  12.9625  13.0844  13.0871  13.0875  13.0945
    13.2841  13.2887  13.2955  13.2979  13.3115  13.3117  13.4438  13.4466
    13.4554  13.4620  13.4763  13.5020  13.5993  13.8332  13.8377  14.1823
    14.1997  14.2845  14.3024  14.5384  14.5474  14.5998  14.6097  14.6098
    14.6162  14.6585  14.6702  14.6763  14.6936  14.7115  14.7135  14.7467
    14.7532  14.7577  14.7659  14.7970  14.8084  14.8152  14.8155  14.8165
    14.8211  14.8253  14.8254  14.8358  14.8363  14.8373  14.8417  14.8444
    14.9032  14.9037  14.9050  14.9077  14.9347  14.9378  14.9420  14.9429
    15.0178  15.0717  15.0793  15.0801  15.0833  15.0959  15.1007  15.1014
    15.1899  15.1908  15.1929  15.1981  15.2077  15.2113  15.2509  15.2623
    15.2694  15.2768  15.2857  15.3332  15.3341  15.3353  15.3893  15.4187
    15.4260  15.4284  15.4288  15.4355  15.4357  15.4427  15.4654  15.4768
    15.4806  15.4808  15.5583  15.5780  15.5852  15.5854  15.5894  15.6236
    15.9038  15.9074  15.9230  15.9232  15.9573  15.9628  15.9764  15.9811
    16.0027  16.0046  16.0113  16.0236  16.0247  16.0267  16.0281  16.0464
    16.0500  16.0519  16.0581  16.0647  16.0737  16.0778  16.0798  16.0824
    16.0841  16.0852  16.0968  16.1095  16.1674  16.1824  16.1880  16.1976
    16.3323  16.3326  16.3379  16.3475  16.3918  16.4004  16.4233  16.4258
    16.4691  16.4831  16.4860  16.4907  16.5814  16.5905  16.5923  16.5965
    16.6011  16.6233  16.6312  16.6326  16.6361  16.6593  16.6830  16.7015
    16.7074  16.7108  16.7328  16.7402  16.7407  16.7435  16.7498  16.7619
    16.8126  16.8176  16.8219  16.8259  16.8360  16.8660  16.8663  16.8759
    16.8873  16.8952  16.9672  16.9695  16.9819  16.9960  17.0026  17.0192
    17.0306  17.0400  17.0433  17.0527  17.0536  17.0563  17.0580  17.0609
    17.0644  17.0785  17.0880  17.0944  17.1012  17.1171  17.1182  17.1265
    17.1878  17.1994  17.2130  17.2166  17.2241  17.2323  17.2376  17.2482
    17.2501  17.2544  17.2751  17.2784  17.2832  17.2848  17.3136  17.3203
    17.3259  17.3322  17.3396  17.3450  17.3819  17.3903  17.4159  17.4352
    17.4428  17.4456  17.4749  17.4889  17.4955  17.4976  17.5391  17.5402
    17.5475  17.5493  17.5706  17.5769  17.6999  17.7131  17.7414  17.7439
    17.8231  17.8322  17.8667  17.8703  17.8810  17.8818  17.8833  17.8903
    17.8952  17.8978  17.9669  17.9687  17.9734  17.9765  17.9775  17.9811
    17.9841  17.9958  17.9973  18.0031  18.0044  18.0245  18.0306  18.0376
    18.0412  18.0442  18.0448  18.0631  18.0637  18.0640  18.1028  18.1051
    18.1396  18.1406  18.1462  18.1477  18.1630  18.1695  18.1731  18.1736
    18.1832  18.1847  18.1892  18.1895  18.1923  18.1932  18.1983  18.1984
    18.1990  18.2058  18.2188  18.2243  18.2517  18.2692  18.2804  18.2807
    18.2965  18.3102  18.3111  18.3157  18.3347  18.3423  18.3440  18.3480
    18.3536  18.3587  18.3618  18.3623  18.4497  18.4520  18.4532  18.4543
    18.5850  18.5940  18.6397  18.6447  18.9468  18.9983  19.0045  19.0177
    19.0374  19.0684  19.1988  19.2236  19.2309  19.2419  19.2540  19.2686
    19.2758  19.2761  19.2794  19.2807  19.2829  19.2947  19.3289  19.3378
    19.4694  19.4751  19.4858  19.4948  19.5110  19.5326  19.5428  19.5446
    19.6597  19.6633  19.6800  19.6819  19.8510  19.8890  19.9660  19.9723
    19.9882  19.9927  20.1249  20.1988  20.2026  20.2147  20.2199  20.2281
    20.2991  20.3076  20.3119  20.3233  20.3243  20.3254  20.3998  20.4203
    20.4440  20.4454  20.4464  20.4569  20.4716  20.4873  20.4973  20.5014
    20.6960  20.7113  20.7427  20.7552  20.8477  20.8554  21.1304  21.1390
    21.1412  21.5707  21.6002  21.6134  21.6586  21.8408  21.8601  21.8840

     occupation numbers 
     1.0000   1.0000   1.0000   1.0000   1.0000   1.0000   1.0000   1.0000
     1.0000   1.0000   1.0000   1.0000   1.0000   1.0000   1.0000   1.0000
     1.0000   1.0000   1.0000   1.0000   1.0000   1.0000   1.0000   1.0000
     1.0000   1.0000   1.0000   1.0000   1.0000   1.0000   1.0000   1.0000
     1.0000   1.0000   1.0000   1.0000   1.0000   1.0000   1.0000   1.0000
     1.0000   1.0000   1.0000   1.0000   1.0000   1.0000   1.0000   1.0000
     1.0000   1.0000   1.0000   1.0000   1.0000   1.0000   1.0000   1.0000
     1.0000   1.0000   1.0000   1.0000   1.0000   1.0000   1.0000   1.0000
     1.0000   1.0000   1.0000   1.0000   1.0000   1.0000   1.0000   1.0000
     1.0000   1.0000   1.0000   1.0000   1.0000   1.0000   1.0000   1.0000
     1.0000   1.0000   1.0000   1.0000   1.0000   1.0000   1.0000   1.0000
     1.0000   1.0000   1.0000   1.0000   1.0000   1.0000   1.0000   1.0000
     1.0000   1.0000   1.0000   1.0000   1.0000   1.0000   1.0000   1.0000
     1.0000   1.0000   1.0000   1.0000   1.0000   1.0000   1.0000   1.0000
     1.0000   1.0000   1.0000   1.0000   1.0000   1.0000   1.0000   1.0000
     1.0000   1.0000   1.0000   1.0000   1.0000   1.0000   1.0000   1.0000
     1.0000   1.0000   1.0000   1.0000   1.0000   1.0000   1.0000   1.0000
     1.0000   1.0000   1.0000   1.0000   1.0000   1.0000   1.0000   1.0000
     1.0000   1.0000   1.0000   1.0000   1.0000   1.0000   1.0000   1.0000
     1.0000   1.0000   1.0000   1.0000   1.0000   1.0000   1.0000   1.0000
     1.0000   1.0000   1.0000   1.0000   1.0000   1.0000   1.0000   1.0000
     1.0000   1.0000   1.0000   1.0000   1.0000   1.0000   1.0000   1.0000
     1.0000   1.0000   1.0000   1.0000   1.0000   1.0000   1.0000   1.0000
     1.0000   1.0000   1.0000   1.0000   1.0000   1.0000   1.0000   1.0000
     1.0000   1.0000   1.0000   1.0000   1.0000   1.0000   1.0000   1.0000
     1.0000   1.0000   1.0000   1.0000   1.0000   1.0000   1.0000   1.0000
     1.0000   1.0000   1.0000   1.0000   1.0000   1.0000   1.0000   1.0000
     1.0000   1.0000   1.0000   1.0000   1.0000   1.0000   1.0000   1.0000
     1.0000   1.0000   1.0000   1.0000   1.0000   1.0000   1.0000   1.0000
     1.0000   1.0000   1.0000   1.0000   1.0000   1.0000   1.0000   1.0000
     1.0000   1.0000   1.0000   1.0000   1.0000   1.0000   1.0000   1.0000
     1.0000   1.0000   1.0000   1.0000   1.0000   1.0000   1.0000   1.0000
     1.0000   1.0000   1.0000   1.0000   1.0000   1.0000   1.0000   1.0000
     1.0000   1.0000   1.0000   1.0000   1.0000   1.0000   1.0000   1.0000
     1.0000   1.0000   1.0000   1.0000   1.0000   1.0000   1.0000   1.0000
     1.0000   1.0000   1.0000   1.0000   1.0000   1.0000   1.0000   1.0000
     1.0000   1.0000   1.0000   1.0000   1.0000   1.0000   1.0000   1.0000
     1.0000   1.0000   1.0000   1.0000   1.0000   1.0000   1.0000   1.0000
     1.0000   1.0000   1.0000   1.0000   1.0000   1.0000   1.0000   1.0000
     1.0000   1.0000   1.0000   1.0000   1.0000   1.0000   1.0000   1.0000
     1.0000   1.0000   1.0000   1.0000   1.0000   1.0000   1.0000   1.0000
     1.0000   1.0000   1.0000   1.0000   1.0000   1.0000   1.0000   1.0000
     1.0000   1.0000   1.0000   1.0000   1.0000   1.0000   1.0000   1.0000
     1.0000   1.0000   1.0000   1.0000   1.0000   1.0000   1.0000   1.0000
     1.0000   1.0000   1.0000   1.0000   1.0000   1.0000   1.0000   1.0000
     1.0000   1.0000   1.0000   1.0000   1.0000   1.0000   1.0000   1.0000
     1.0000   1.0000   1.0000   1.0000   1.0000   1.0000   1.0000   1.0000
     1.0000   1.0000   1.0000   1.0000   1.0000   1.0000   1.0000   1.0000
     1.0000   1.0000   1.0000   1.0000   1.0000   1.0000   1.0000   1.0000
     1.0000   1.0000   1.0000   1.0000   1.0000   1.0000   1.0000   1.0000
     1.0000   1.0000   1.0000   1.0000   1.0000   1.0000   1.0000   1.0000
     1.0000   1.0000   1.0000   1.0000   1.0000   1.0000   1.0000   1.0000
     1.0000   1.0000   1.0000   1.0000   1.0000   1.0000   1.0000   1.0000
     1.0000   1.0000   1.0000   1.0000   1.0000   1.0000   1.0000   1.0000
     1.0000   1.0000   1.0000   1.0000   1.0000   1.0000   1.0000   1.0000
     1.0000   1.0000   1.0000   1.0000   1.0000   1.0000   1.0000   1.0000
     1.0000   1.0000   1.0000   1.0000   1.0000   1.0000   1.0000   1.0000
     1.0000   1.0000   1.0000   1.0000   1.0000   1.0000   1.0000   1.0000
     1.0000   1.0000   1.0000   1.0000   1.0000   1.0000   1.0000   1.0000
     1.0000   1.0000   1.0000   1.0000   1.0000   1.0000   1.0000   1.0000
     1.0000   1.0000   1.0000   1.0000   1.0000   1.0000   1.0000   1.0000
     1.0000   1.0000   1.0000   1.0000   1.0000   1.0000   1.0000   1.0000
     1.0000   1.0000   1.0000   1.0000   1.0000   1.0000   1.0000   1.0000
     1.0000   1.0000   1.0000   1.0000   1.0000   1.0000   1.0000   1.0000
     1.0000   1.0000   1.0000   1.0000   1.0000   1.0000   1.0000   1.0000
     1.0000   1.0000   1.0000   1.0000   1.0000   1.0000   1.0000   1.0000
     1.0000   1.0000   1.0000   1.0000   1.0000   1.0000   1.0000   1.0000
     1.0000   1.0000   1.0000   1.0000   1.0000   1.0000   1.0000   1.0000
     1.0000   1.0000   1.0000   1.0000   1.0000   1.0000   1.0000   1.0000
     0.9999   0.9999   0.9999   0.9999   0.9995   0.9994   0.9994   0.9993
     0.9993   0.9989   0.9987   0.9987   0.9986   0.9980   0.9970   0.9960
     0.9956   0.9954   0.9936   0.9929   0.9929   0.9926   0.9919   0.9904
     0.9811   0.9798   0.9787   0.9777   0.9747   0.9640   0.9639   0.9598
     0.9543   0.9503   0.8985   0.8963   0.8843   0.8694   0.8619   0.8421
     0.8273   0.8146   0.8099   0.7965   0.7950   0.7911   0.7885   0.7840
     0.7788   0.7563   0.7406   0.7298   0.7179   0.6894   0.6874   0.6719
     0.5504   0.5265   0.4982   0.4908   0.4752   0.4584   0.4474   0.4257
     0.4219   0.4132   0.3718   0.3653   0.3561   0.3530   0.2990   0.2871
     0.2772   0.2665   0.2539   0.2450   0.1888   0.1773   0.1448   0.1232
     0.1153   0.1125   0.0861   0.0752   0.0705   0.0690   0.0447   0.0441
     0.0407   0.0399   0.0313   0.0290   0.0056   0.0046   0.0030   0.0029
     0.0007   0.0006   0.0003   0.0003   0.0003   0.0003   0.0002   0.0002
     0.0002   0.0002   0.0000   0.0000   0.0000   0.0000   0.0000   0.0000
     0.0000   0.0000   0.0000   0.0000   0.0000   0.0000   0.0000   0.0000
     0.0000   0.0000   0.0000   0.0000   0.0000   0.0000   0.0000   0.0000
     0.0000   0.0000   0.0000   0.0000   0.0000   0.0000   0.0000   0.0000
     0.0000   0.0000   0.0000   0.0000   0.0000   0.0000   0.0000   0.0000
     0.0000   0.0000   0.0000   0.0000   0.0000   0.0000   0.0000   0.0000
     0.0000   0.0000   0.0000   0.0000   0.0000   0.0000   0.0000   0.0000
     0.0000   0.0000   0.0000   0.0000   0.0000   0.0000   0.0000   0.0000
     0.0000   0.0000   0.0000   0.0000   0.0000   0.0000   0.0000   0.0000
     0.0000   0.0000   0.0000   0.0000   0.0000   0.0000   0.0000   0.0000
     0.0000   0.0000   0.0000   0.0000   0.0000   0.0000   0.0000   0.0000
     0.0000   0.0000   0.0000   0.0000   0.0000   0.0000   0.0000   0.0000
     0.0000   0.0000   0.0000   0.0000   0.0000   0.0000   0.0000   0.0000
     0.0000   0.0000   0.0000   0.0000   0.0000   0.0000   0.0000   0.0000
     0.0000   0.0000   0.0000   0.0000   0.0000   0.0000   0.0000   0.0000
     0.0000   0.0000   0.0000   0.0000   0.0000   0.0000   0.0000   0.0000
     0.0000   0.0000   0.0000   0.0000   0.0000   0.0000   0.0000   0.0000
     0.0000   0.0000   0.0000   0.0000   0.0000   0.0000   0.0000   0.0000

          k = 0.5000-0.2887 0.2850 (100630 PWs)   bands (ev):

   -69.1493 -69.1395 -69.0695 -69.0554 -69.0343 -69.0339 -69.0324 -69.0318
   -69.0190 -69.0185 -69.0185 -69.0181 -69.0164 -69.0160 -69.0131 -69.0127
   -69.0127 -69.0118 -69.0091 -69.0071 -69.0070 -69.0068 -69.0067 -69.0067
   -69.0065 -69.0064 -69.0062 -69.0047 -69.0044 -69.0043 -69.0041 -69.0014
   -68.9951 -68.9951 -68.9774 -68.9771 -68.6456 -68.6421 -68.6413 -68.6397
   -68.6393 -68.6365 -68.6365 -68.6360 -68.6360 -68.6345 -68.6344 -68.6341
   -68.6341 -68.6333 -68.6331 -68.6329 -68.6326 -68.6325 -68.6323 -68.6321
   -68.6320 -68.6319 -68.6316 -68.6314 -68.6314 -68.6311 -68.6311 -68.6307
   -68.6307 -68.6302 -68.6292 -68.6292 -68.6287 -68.6287 -68.6236 -68.6236
   -35.4825 -35.4063 -35.3481 -35.3038 -35.3037 -35.3035 -35.3029 -35.3002
   -35.2993 -35.2962 -35.2957 -35.2952 -35.2949 -35.2886 -35.2885 -35.2547
   -35.2400 -35.2377 -35.2367 -35.2361 -35.2355 -35.2353 -35.2347 -35.2308
   -35.2298 -35.2293 -35.2282 -35.2273 -35.2267 -35.2262 -35.2258 -35.2251
   -35.2244 -35.2242 -35.2205 -35.2198 -35.2178 -35.2175 -35.2164 -35.1873
   -35.1817 -35.1813 -35.1796 -35.1781 -35.1775 -35.1737 -35.1734 -35.1724
   -35.1719 -35.1715 -35.1712 -35.1711 -35.1709 -35.1704 -35.1694 -35.1689
   -35.1669 -35.1648 -35.1646 -35.1630 -35.1610 -35.1596 -35.1594 -35.1586
   -35.1585 -35.1567 -35.1566 -35.1552 -35.1545 -35.1536 -35.1374 -35.1359
   -35.1074 -35.1013 -35.0871 -35.0697 -35.0504 -35.0465 -35.0429 -35.0427
   -35.0388 -35.0346 -35.0334 -35.0313 -35.0287 -35.0270 -35.0261 -35.0258
   -35.0194 -35.0192 -35.0188 -35.0176 -35.0168 -35.0156 -35.0149 -35.0140
   -35.0134 -35.0117 -35.0112 -35.0111 -35.0081 -35.0071 -35.0047 -35.0032
   -34.9989 -34.9980 -34.9933 -34.9862 -34.8412 -34.8383 -34.8332 -34.8321
   -34.8319 -34.8306 -34.8274 -34.8270 -34.8259 -34.8257 -34.8254 -34.8250
   -34.8240 -34.8237 -34.8232 -34.8225 -34.8224 -34.8222 -34.8211 -34.8210
   -34.8207 -34.8205 -34.8201 -34.8198 -34.8193 -34.8190 -34.8188 -34.8183
   -34.8175 -34.8165 -34.8158 -34.8155 -34.8150 -34.8128 -34.8087 -34.8080
   -34.7667 -34.7666 -34.7651 -34.7649 -34.7636 -34.7635 -34.7618 -34.7614
   -34.7612 -34.7610 -34.7599 -34.7593 -34.7586 -34.7583 -34.7580 -34.7575
   -34.7571 -34.7569 -34.7564 -34.7562 -34.7561 -34.7560 -34.7556 -34.7554
   -34.7551 -34.7549 -34.7545 -34.7543 -34.7542 -34.7526 -34.7499 -34.7485
   -34.7484 -34.7462 -34.7405 -34.7384 -34.7074 -34.7029 -34.6985 -34.6973
   -34.6968 -34.6959 -34.6955 -34.6933 -34.6919 -34.6916 -34.6903 -34.6885
   -34.6880 -34.6878 -34.6863 -34.6843 -34.6834 -34.6813 -34.6799 -34.6797
   -34.6782 -34.6770 -34.6758 -34.6754 -34.6752 -34.6751 -34.6729 -34.6727
   -34.6725 -34.6725 -34.6720 -34.6719 -34.6716 -34.6713 -34.6635 -34.6632
     3.5993   3.6579   4.1039   4.1816   4.1866   4.1879   4.6210   4.6505
     4.8996   4.9399   4.9996   5.0283   5.0991   5.1166   5.2400   5.2562
     5.2569   5.2756   5.3287   5.3385   5.4406   5.4587   5.5076   5.5168
     5.5795   5.5927   5.6035   5.6146   5.6388   5.6438   5.8375   5.8386
     5.8642   5.8802   6.1291   6.1296   8.7127   9.9051   9.9397  10.0355
    10.0709  10.1235  10.1271  10.1700  10.2395  10.2682  10.2720  10.3325
    10.3765  10.3988  10.4070  10.4301  10.4336  10.4515  10.4918  10.5244
    10.6997  10.7260  10.7404  10.7522  10.7698  10.7813  11.0661  11.1285
    11.2073  11.2285  11.2858  11.3131  11.4181  11.5201  11.5283  11.5484
    11.5536  11.6274  11.6379  11.6891  11.7431  11.8683  11.8883  11.9128
    11.9144  11.9318  11.9633  11.9829  11.9844  11.9887  12.0370  12.0706
    12.2946  12.2990  12.3054  12.3144  12.3590  12.3901  12.3909  12.4002
    12.4377  12.4480  12.4603  12.4651  12.4790  12.4857  12.5497  12.5506
    12.5633  12.5697  12.6298  12.6344  12.6481  12.6575  12.7378  12.7467
    12.7544  12.8009  12.8236  12.8558  12.8890  12.9070  12.9775  12.9989
    13.0009  13.0090  13.0244  13.0392  13.0762  13.0831  13.1822  13.1844
    13.2404  13.2424  13.2573  13.2701  13.2729  13.2762  13.3192  13.3222
    13.3596  13.3790  13.4825  13.5046  13.5206  13.5808  13.5996  13.6485
    13.7351  14.6125  14.6153  14.6216  14.6239  14.6279  14.6280  14.6561
    14.6630  14.6674  14.6692  14.6908  14.6938  14.7070  14.7218  14.7328
    14.7371  14.7452  14.7547  14.7979  14.8013  14.8035  14.8110  14.8170
    14.8193  14.8254  14.8260  14.8304  14.8311  14.8369  14.8567  14.8661
    14.8675  14.8738  14.9088  14.9172  14.9604  14.9623  14.9655  14.9717
    15.0337  15.0381  15.0404  15.1004  15.1063  15.1071  15.1108  15.1158
    15.1530  15.1552  15.1862  15.1914  15.2095  15.2161  15.2166  15.2233
    15.2275  15.2352  15.2385  15.2443  15.3074  15.3220  15.3545  15.3659
    15.3744  15.3813  15.3944  15.4046  15.4057  15.4131  15.4460  15.4497
    15.4678  15.5071  15.5690  15.5950  15.6049  15.6141  15.7331  15.7366
    15.7958  15.8107  15.8934  15.8992  15.9097  15.9171  15.9266  15.9297
    15.9653  15.9939  16.0291  16.0341  16.0374  16.0582  16.0688  16.0787
    16.0938  16.0951  16.1071  16.1150  16.1209  16.1316  16.1316  16.1441
    16.1619  16.1679  16.2398  16.2514  16.2786  16.2815  16.2932  16.2985
    16.3559  16.3572  16.3641  16.3736  16.3777  16.3858  16.4093  16.4224
    16.4260  16.4357  16.5437  16.5451  16.5554  16.5654  16.5655  16.5673
    16.5836  16.5888  16.5896  16.6283  16.6687  16.6704  16.6804  16.6878
    16.6962  16.7164  16.7213  16.7381  16.7415  16.7486  16.7774  16.7787
    16.7828  16.7884  16.7969  16.8014  16.8448  16.8930  16.9025  16.9047
    16.9107  16.9261  16.9262  16.9351  16.9587  16.9729  16.9733  17.0005
    17.0045  17.0094  17.0108  17.0112  17.0176  17.0179  17.0212  17.0315
    17.0326  17.0374  17.0679  17.0855  17.1062  17.1136  17.1249  17.1309
    17.1413  17.1470  17.1972  17.1996  17.2082  17.2212  17.2224  17.2235
    17.2269  17.2293  17.2353  17.2413  17.2798  17.2837  17.2995  17.3088
    17.3288  17.3373  17.3412  17.3458  17.3529  17.3621  17.3947  17.4063
    17.4577  17.4634  17.4734  17.4888  17.4945  17.4988  17.4992  17.5059
    17.5185  17.5204  17.6181  17.6293  17.6486  17.6563  17.7335  17.7340
    17.8516  17.8598  17.8759  17.8765  17.8838  17.8842  17.9034  17.9182
    17.9247  17.9300  17.9580  17.9628  17.9641  17.9705  17.9863  17.9953
    18.0025  18.0161  18.0166  18.0183  18.0260  18.0266  18.0323  18.0463
    18.0473  18.0618  18.0649  18.0654  18.0698  18.0728  18.0900  18.0916
    18.1222  18.1250  18.1328  18.1334  18.1628  18.1712  18.1724  18.1769
    18.1980  18.1989  18.2014  18.2064  18.2253  18.2316  18.2343  18.2394
    18.2399  18.2448  18.2530  18.2549  18.2582  18.2605  18.2615  18.2623
    18.2991  18.3002  18.3527  18.3622  18.3655  18.3678  18.3682  18.3692
    18.3860  18.3886  18.4044  18.4058  18.4277  18.4289  18.4793  18.4828
    18.5393  18.5441  18.6818  18.6884  18.7626  18.7822  19.0451  19.0457
    19.0863  19.1127  19.1193  19.1321  19.1334  19.1642  19.1974  19.2073
    19.2761  19.2860  19.2940  19.3019  19.3317  19.3346  19.3552  19.3625
    19.4436  19.4454  19.5122  19.5319  19.6191  19.6251  19.6812  19.7120
    19.7529  19.7626  19.7788  19.7861  19.8371  19.8520  19.8623  19.8705
    19.9021  19.9369  20.0151  20.0184  20.0321  20.0420  20.1956  20.2242
    20.2474  20.2558  20.2917  20.3034  20.3050  20.3228  20.3275  20.3375
    20.4136  20.4332  20.4472  20.4494  20.4941  20.5049  20.5129  20.5140
    20.6237  20.6269  20.7136  20.7232  20.7276  20.7417  20.8246  20.8545
    21.3010  21.3500  21.3915  21.5760  21.5985  21.8604  21.8640  22.0447

     occupation numbers 
     1.0000   1.0000   1.0000   1.0000   1.0000   1.0000   1.0000   1.0000
     1.0000   1.0000   1.0000   1.0000   1.0000   1.0000   1.0000   1.0000
     1.0000   1.0000   1.0000   1.0000   1.0000   1.0000   1.0000   1.0000
     1.0000   1.0000   1.0000   1.0000   1.0000   1.0000   1.0000   1.0000
     1.0000   1.0000   1.0000   1.0000   1.0000   1.0000   1.0000   1.0000
     1.0000   1.0000   1.0000   1.0000   1.0000   1.0000   1.0000   1.0000
     1.0000   1.0000   1.0000   1.0000   1.0000   1.0000   1.0000   1.0000
     1.0000   1.0000   1.0000   1.0000   1.0000   1.0000   1.0000   1.0000
     1.0000   1.0000   1.0000   1.0000   1.0000   1.0000   1.0000   1.0000
     1.0000   1.0000   1.0000   1.0000   1.0000   1.0000   1.0000   1.0000
     1.0000   1.0000   1.0000   1.0000   1.0000   1.0000   1.0000   1.0000
     1.0000   1.0000   1.0000   1.0000   1.0000   1.0000   1.0000   1.0000
     1.0000   1.0000   1.0000   1.0000   1.0000   1.0000   1.0000   1.0000
     1.0000   1.0000   1.0000   1.0000   1.0000   1.0000   1.0000   1.0000
     1.0000   1.0000   1.0000   1.0000   1.0000   1.0000   1.0000   1.0000
     1.0000   1.0000   1.0000   1.0000   1.0000   1.0000   1.0000   1.0000
     1.0000   1.0000   1.0000   1.0000   1.0000   1.0000   1.0000   1.0000
     1.0000   1.0000   1.0000   1.0000   1.0000   1.0000   1.0000   1.0000
     1.0000   1.0000   1.0000   1.0000   1.0000   1.0000   1.0000   1.0000
     1.0000   1.0000   1.0000   1.0000   1.0000   1.0000   1.0000   1.0000
     1.0000   1.0000   1.0000   1.0000   1.0000   1.0000   1.0000   1.0000
     1.0000   1.0000   1.0000   1.0000   1.0000   1.0000   1.0000   1.0000
     1.0000   1.0000   1.0000   1.0000   1.0000   1.0000   1.0000   1.0000
     1.0000   1.0000   1.0000   1.0000   1.0000   1.0000   1.0000   1.0000
     1.0000   1.0000   1.0000   1.0000   1.0000   1.0000   1.0000   1.0000
     1.0000   1.0000   1.0000   1.0000   1.0000   1.0000   1.0000   1.0000
     1.0000   1.0000   1.0000   1.0000   1.0000   1.0000   1.0000   1.0000
     1.0000   1.0000   1.0000   1.0000   1.0000   1.0000   1.0000   1.0000
     1.0000   1.0000   1.0000   1.0000   1.0000   1.0000   1.0000   1.0000
     1.0000   1.0000   1.0000   1.0000   1.0000   1.0000   1.0000   1.0000
     1.0000   1.0000   1.0000   1.0000   1.0000   1.0000   1.0000   1.0000
     1.0000   1.0000   1.0000   1.0000   1.0000   1.0000   1.0000   1.0000
     1.0000   1.0000   1.0000   1.0000   1.0000   1.0000   1.0000   1.0000
     1.0000   1.0000   1.0000   1.0000   1.0000   1.0000   1.0000   1.0000
     1.0000   1.0000   1.0000   1.0000   1.0000   1.0000   1.0000   1.0000
     1.0000   1.0000   1.0000   1.0000   1.0000   1.0000   1.0000   1.0000
     1.0000   1.0000   1.0000   1.0000   1.0000   1.0000   1.0000   1.0000
     1.0000   1.0000   1.0000   1.0000   1.0000   1.0000   1.0000   1.0000
     1.0000   1.0000   1.0000   1.0000   1.0000   1.0000   1.0000   1.0000
     1.0000   1.0000   1.0000   1.0000   1.0000   1.0000   1.0000   1.0000
     1.0000   1.0000   1.0000   1.0000   1.0000   1.0000   1.0000   1.0000
     1.0000   1.0000   1.0000   1.0000   1.0000   1.0000   1.0000   1.0000
     1.0000   1.0000   1.0000   1.0000   1.0000   1.0000   1.0000   1.0000
     1.0000   1.0000   1.0000   1.0000   1.0000   1.0000   1.0000   1.0000
     1.0000   1.0000   1.0000   1.0000   1.0000   1.0000   1.0000   1.0000
     1.0000   1.0000   1.0000   1.0000   1.0000   1.0000   1.0000   1.0000
     1.0000   1.0000   1.0000   1.0000   1.0000   1.0000   1.0000   1.0000
     1.0000   1.0000   1.0000   1.0000   1.0000   1.0000   1.0000   1.0000
     1.0000   1.0000   1.0000   1.0000   1.0000   1.0000   1.0000   1.0000
     1.0000   1.0000   1.0000   1.0000   1.0000   1.0000   1.0000   1.0000
     1.0000   1.0000   1.0000   1.0000   1.0000   1.0000   1.0000   1.0000
     1.0000   1.0000   1.0000   1.0000   1.0000   1.0000   1.0000   1.0000
     1.0000   1.0000   1.0000   1.0000   1.0000   1.0000   1.0000   1.0000
     1.0000   1.0000   1.0000   1.0000   1.0000   1.0000   1.0000   1.0000
     1.0000   1.0000   1.0000   1.0000   1.0000   1.0000   1.0000   1.0000
     1.0000   1.0000   1.0000   1.0000   1.0000   1.0000   1.0000   1.0000
     1.0000   1.0000   1.0000   1.0000   1.0000   1.0000   1.0000   1.0000
     1.0000   1.0000   1.0000   1.0000   1.0000   1.0000   1.0000   1.0000
     1.0000   1.0000   1.0000   1.0000   1.0000   1.0000   1.0000   1.0000
     1.0000   1.0000   1.0000   1.0000   1.0000   1.0000   1.0000   1.0000
     1.0000   1.0000   1.0000   1.0000   1.0000   1.0000   1.0000   1.0000
     1.0000   1.0000   1.0000   1.0000   1.0000   1.0000   1.0000   1.0000
     1.0000   1.0000   1.0000   1.0000   1.0000   1.0000   1.0000   1.0000
     1.0000   1.0000   1.0000   1.0000   1.0000   1.0000   1.0000   1.0000
     1.0000   1.0000   1.0000   1.0000   1.0000   1.0000   1.0000   1.0000
     1.0000   1.0000   1.0000   1.0000   1.0000   1.0000   1.0000   1.0000
     1.0000   1.0000   1.0000   1.0000   1.0000   1.0000   1.0000   1.0000
     1.0000   1.0000   1.0000   1.0000   1.0000   1.0000   1.0000   1.0000
     1.0000   1.0000   1.0000   1.0000   1.0000   1.0000   1.0000   1.0000
     1.0000   1.0000   0.9997   0.9997   0.9997   0.9996   0.9996   0.9996
     0.9995   0.9994   0.9994   0.9988   0.9976   0.9976   0.9971   0.9968
     0.9963   0.9950   0.9946   0.9931   0.9928   0.9920   0.9881   0.9879
     0.9872   0.9862   0.9846   0.9836   0.9719   0.9514   0.9462   0.9450
     0.9414   0.9314   0.9314   0.9251   0.9061   0.8932   0.8928   0.8644
     0.8597   0.8540   0.8524   0.8518   0.8440   0.8437   0.8395   0.8261
     0.8247   0.8182   0.7733   0.7449   0.7090   0.6958   0.6749   0.6636
     0.6437   0.6327   0.5310   0.5261   0.5082   0.4813   0.4788   0.4765
     0.4695   0.4646   0.4521   0.4398   0.3627   0.3551   0.3250   0.3077
     0.2723   0.2577   0.2513   0.2437   0.2323   0.2179   0.1714   0.1565
     0.1010   0.0958   0.0873   0.0752   0.0712   0.0681   0.0679   0.0635
     0.0557   0.0546   0.0175   0.0151   0.0117   0.0105   0.0034   0.0033
     0.0004   0.0004   0.0003   0.0003   0.0002   0.0002   0.0002   0.0001
     0.0001   0.0001   0.0001   0.0000   0.0000   0.0000   0.0000   0.0000
     0.0000   0.0000   0.0000   0.0000   0.0000   0.0000   0.0000   0.0000
     0.0000   0.0000   0.0000   0.0000   0.0000   0.0000   0.0000   0.0000
     0.0000   0.0000   0.0000   0.0000   0.0000   0.0000   0.0000   0.0000
     0.0000   0.0000   0.0000   0.0000   0.0000   0.0000   0.0000   0.0000
     0.0000   0.0000   0.0000   0.0000   0.0000   0.0000   0.0000   0.0000
     0.0000   0.0000   0.0000   0.0000   0.0000   0.0000   0.0000   0.0000
     0.0000   0.0000   0.0000   0.0000   0.0000   0.0000   0.0000   0.0000
     0.0000   0.0000   0.0000   0.0000   0.0000   0.0000   0.0000   0.0000
     0.0000   0.0000   0.0000   0.0000   0.0000   0.0000   0.0000   0.0000
     0.0000   0.0000   0.0000   0.0000   0.0000   0.0000   0.0000   0.0000
     0.0000   0.0000   0.0000   0.0000   0.0000   0.0000   0.0000   0.0000
     0.0000   0.0000   0.0000   0.0000   0.0000   0.0000   0.0000   0.0000
     0.0000   0.0000   0.0000   0.0000   0.0000   0.0000   0.0000   0.0000
     0.0000   0.0000   0.0000   0.0000   0.0000   0.0000   0.0000   0.0000
     0.0000   0.0000   0.0000   0.0000   0.0000   0.0000   0.0000   0.0000
     0.0000   0.0000   0.0000   0.0000   0.0000   0.0000   0.0000   0.0000
     0.0000   0.0000   0.0000   0.0000   0.0000   0.0000   0.0000   0.0000

          k = 0.5000-0.2887-0.5700 (100572 PWs)   bands (ev):

   -69.1493 -69.1395 -69.0695 -69.0554 -69.0343 -69.0339 -69.0324 -69.0318
   -69.0190 -69.0185 -69.0185 -69.0181 -69.0164 -69.0160 -69.0131 -69.0127
   -69.0127 -69.0118 -69.0091 -69.0071 -69.0070 -69.0068 -69.0067 -69.0067
   -69.0065 -69.0064 -69.0062 -69.0047 -69.0044 -69.0043 -69.0040 -69.0014
   -68.9951 -68.9951 -68.9774 -68.9771 -68.6456 -68.6421 -68.6413 -68.6397
   -68.6393 -68.6365 -68.6365 -68.6360 -68.6360 -68.6345 -68.6344 -68.6341
   -68.6341 -68.6333 -68.6331 -68.6329 -68.6326 -68.6325 -68.6323 -68.6320
   -68.6320 -68.6319 -68.6316 -68.6314 -68.6313 -68.6311 -68.6311 -68.6307
   -68.6307 -68.6302 -68.6292 -68.6292 -68.6287 -68.6287 -68.6236 -68.6236
   -35.4825 -35.4063 -35.3481 -35.3038 -35.3037 -35.3036 -35.3029 -35.3002
   -35.2993 -35.2964 -35.2956 -35.2950 -35.2949 -35.2886 -35.2886 -35.2547
   -35.2400 -35.2379 -35.2369 -35.2362 -35.2355 -35.2350 -35.2346 -35.2305
   -35.2298 -35.2288 -35.2281 -35.2279 -35.2268 -35.2267 -35.2257 -35.2251
   -35.2245 -35.2239 -35.2205 -35.2198 -35.2178 -35.2175 -35.2164 -35.1872
   -35.1815 -35.1814 -35.1799 -35.1781 -35.1775 -35.1734 -35.1727 -35.1721
   -35.1718 -35.1713 -35.1713 -35.1711 -35.1708 -35.1708 -35.1698 -35.1695
   -35.1667 -35.1648 -35.1646 -35.1630 -35.1609 -35.1596 -35.1593 -35.1585
   -35.1578 -35.1578 -35.1562 -35.1560 -35.1541 -35.1533 -35.1375 -35.1358
   -35.1074 -35.1013 -35.0872 -35.0700 -35.0501 -35.0475 -35.0434 -35.0426
   -35.0395 -35.0346 -35.0314 -35.0310 -35.0279 -35.0274 -35.0268 -35.0259
   -35.0194 -35.0191 -35.0184 -35.0183 -35.0173 -35.0152 -35.0143 -35.0120
   -35.0114 -35.0113 -35.0107 -35.0103 -35.0085 -35.0081 -35.0060 -35.0042
   -34.9996 -34.9990 -34.9930 -34.9866 -34.8419 -34.8377 -34.8334 -34.8332
   -34.8328 -34.8308 -34.8275 -34.8263 -34.8258 -34.8257 -34.8254 -34.8249
   -34.8244 -34.8233 -34.8229 -34.8225 -34.8223 -34.8212 -34.8207 -34.8207
   -34.8206 -34.8201 -34.8199 -34.8196 -34.8194 -34.8191 -34.8190 -34.8179
   -34.8165 -34.8161 -34.8158 -34.8155 -34.8132 -34.8119 -34.8119 -34.8110
   -34.7662 -34.7651 -34.7641 -34.7628 -34.7625 -34.7617 -34.7613 -34.7603
   -34.7602 -34.7602 -34.7595 -34.7595 -34.7594 -34.7589 -34.7587 -34.7585
   -34.7578 -34.7575 -34.7572 -34.7571 -34.7567 -34.7566 -34.7564 -34.7564
   -34.7561 -34.7558 -34.7556 -34.7555 -34.7553 -34.7522 -34.7492 -34.7476
   -34.7474 -34.7451 -34.7409 -34.7379 -34.7074 -34.7029 -34.6984 -34.6973
   -34.6968 -34.6957 -34.6956 -34.6933 -34.6919 -34.6915 -34.6903 -34.6885
   -34.6880 -34.6878 -34.6862 -34.6845 -34.6834 -34.6814 -34.6799 -34.6797
   -34.6777 -34.6777 -34.6756 -34.6754 -34.6752 -34.6751 -34.6729 -34.6727
   -34.6726 -34.6725 -34.6720 -34.6719 -34.6716 -34.6712 -34.6635 -34.6631
     3.7605   3.8540   3.8628   3.8642   4.3141   4.3650   4.3664   4.3680
     5.0091   5.0746   5.0777   5.0832   5.2315   5.2388   5.2515   5.2581
     5.2715   5.3126   5.3548   5.3611   5.3651   5.3695   5.5167   5.5305
     5.5380   5.5674   5.5761   5.5797   5.6877   5.6896   5.6958   5.6967
     5.9390   5.9558   6.1806   6.1813   8.7054   9.7946   9.8530   9.9671
     9.9699  10.0800  10.0823  10.2286  10.2356  10.2368  10.2560  10.2601
    10.2741  10.2758  10.2767  10.2821  10.5073  10.5422  10.5489  10.5502
    10.5581  10.5801  10.5825  10.5955  10.6879  10.6995  11.1510  11.2539
    11.2571  11.2650  11.2997  11.3052  11.4585  11.6779  11.6908  11.7906
    11.7935  11.8056  11.8809  11.9811  12.0026  12.0109  12.0269  12.0351
    12.0388  12.0393  12.0487  12.0491  12.0590  12.0684  12.0691  12.0693
    12.1902  12.2128  12.2163  12.2245  12.3382  12.3462  12.5334  12.5341
    12.5429  12.5858  12.5913  12.5963  12.6067  12.6326  12.6374  12.6379
    12.6467  12.6545  12.6584  12.6590  12.6620  12.6653  12.6716  12.6736
    12.6805  12.6845  12.7912  12.8366  12.8371  12.8471  12.8493  12.8521
    12.8800  12.8810  12.8830  12.8889  12.9849  12.9900  13.0531  13.0711
    13.0768  13.0876  13.2016  13.2221  13.2273  13.2327  13.2491  13.2616
    13.3999  13.4003  13.4036  13.4059  13.4268  13.4360  13.4535  13.4552
    13.6586  14.6459  14.6518  14.6570  14.6572  14.6597  14.6770  14.6774
    14.6849  14.6986  14.7077  14.7106  14.7151  14.7175  14.7231  14.7344
    14.7372  14.7405  14.7431  14.7509  14.7802  14.7844  14.7972  14.7983
    14.8044  14.8119  14.8559  14.8712  14.8721  14.8781  14.8888  14.8890
    14.8948  14.8999  14.9066  14.9070  14.9158  14.9272  15.0370  15.0394
    15.0423  15.0438  15.0880  15.1003  15.1077  15.1095  15.1108  15.1174
    15.1184  15.1248  15.1272  15.1484  15.1565  15.1579  15.1667  15.1681
    15.2124  15.2213  15.2499  15.2538  15.2968  15.3069  15.3108  15.3108
    15.3356  15.3417  15.3642  15.3667  15.3759  15.3843  15.4036  15.4044
    15.4839  15.5364  15.5426  15.5433  15.7537  15.7623  15.7640  15.7712
    15.8061  15.8199  15.8359  15.8375  15.8517  15.8636  15.8659  15.8712
    15.9667  15.9977  16.0279  16.0531  16.0580  16.0609  16.0843  16.0929
    16.1483  16.1695  16.1757  16.1831  16.2034  16.2105  16.2152  16.2258
    16.2281  16.2436  16.2451  16.2496  16.3299  16.3358  16.3553  16.3648
    16.3758  16.3804  16.3982  16.4145  16.4203  16.4208  16.4211  16.4245
    16.4257  16.4356  16.5404  16.5427  16.5658  16.5808  16.5835  16.5888
    16.5919  16.5931  16.6019  16.6069  16.6282  16.6618  16.6736  16.6830
    16.6981  16.6990  16.7073  16.7082  16.7097  16.7171  16.7493  16.7605
    16.7861  16.8009  16.8041  16.8139  16.8414  16.8632  16.8689  16.8735
    16.8932  16.9235  16.9311  16.9469  16.9492  16.9498  16.9554  16.9590
    16.9594  16.9691  16.9765  16.9802  16.9948  17.0083  17.0088  17.0145
    17.0170  17.0442  17.0482  17.0534  17.0650  17.0807  17.1407  17.1453
    17.1580  17.1588  17.1642  17.1648  17.1714  17.1717  17.1877  17.1938
    17.1962  17.1978  17.2286  17.2476  17.2540  17.2563  17.2613  17.2691
    17.3307  17.3374  17.3537  17.3620  17.3666  17.3689  17.3799  17.3945
    17.4008  17.4076  17.4670  17.4714  17.4736  17.4911  17.5093  17.5160
    17.5666  17.5710  17.5764  17.5850  17.6827  17.6920  17.7039  17.7048
    17.8522  17.8744  17.8801  17.8820  17.8849  17.8861  17.9023  17.9059
    17.9334  17.9493  17.9497  17.9510  17.9768  17.9835  18.0038  18.0073
    18.0080  18.0086  18.0220  18.0238  18.0480  18.0544  18.0568  18.0633
    18.0640  18.0700  18.0733  18.0783  18.0794  18.0810  18.0818  18.0866
    18.0894  18.0922  18.1274  18.1373  18.1639  18.1683  18.2205  18.2234
    18.2294  18.2303  18.2333  18.2334  18.2459  18.2471  18.2485  18.2555
    18.2614  18.2642  18.2666  18.2679  18.2720  18.2724  18.2742  18.2759
    18.3404  18.3429  18.3457  18.3490  18.3927  18.3929  18.4015  18.4020
    18.4249  18.4322  18.4336  18.4339  18.4404  18.4436  18.4951  18.5000
    18.5375  18.5558  18.5582  18.5614  18.8100  18.8301  18.8354  18.8382
    19.0202  19.0326  19.0425  19.0432  19.1015  19.1189  19.2771  19.2924
    19.3130  19.3404  19.3646  19.4054  19.4101  19.4161  19.4292  19.4338
    19.4385  19.4475  19.6134  19.6186  19.6284  19.6361  19.7145  19.7227
    19.7282  19.7964  19.8067  19.8094  19.8639  19.9114  19.9154  19.9300
    19.9376  19.9446  19.9618  19.9690  20.0069  20.0249  20.0386  20.0454
    20.0477  20.0508  20.1566  20.1681  20.1766  20.1879  20.2125  20.2190
    20.2260  20.2276  20.3800  20.3890  20.3977  20.4093  20.6153  20.6274
    20.6395  20.6440  20.7407  20.7638  20.7780  20.7796  20.8559  20.8622
    21.2277  21.2551  21.4100  21.4309  21.4423  21.8146  21.8489  22.3909

     occupation numbers 
     1.0000   1.0000   1.0000   1.0000   1.0000   1.0000   1.0000   1.0000
     1.0000   1.0000   1.0000   1.0000   1.0000   1.0000   1.0000   1.0000
     1.0000   1.0000   1.0000   1.0000   1.0000   1.0000   1.0000   1.0000
     1.0000   1.0000   1.0000   1.0000   1.0000   1.0000   1.0000   1.0000
     1.0000   1.0000   1.0000   1.0000   1.0000   1.0000   1.0000   1.0000
     1.0000   1.0000   1.0000   1.0000   1.0000   1.0000   1.0000   1.0000
     1.0000   1.0000   1.0000   1.0000   1.0000   1.0000   1.0000   1.0000
     1.0000   1.0000   1.0000   1.0000   1.0000   1.0000   1.0000   1.0000
     1.0000   1.0000   1.0000   1.0000   1.0000   1.0000   1.0000   1.0000
     1.0000   1.0000   1.0000   1.0000   1.0000   1.0000   1.0000   1.0000
     1.0000   1.0000   1.0000   1.0000   1.0000   1.0000   1.0000   1.0000
     1.0000   1.0000   1.0000   1.0000   1.0000   1.0000   1.0000   1.0000
     1.0000   1.0000   1.0000   1.0000   1.0000   1.0000   1.0000   1.0000
     1.0000   1.0000   1.0000   1.0000   1.0000   1.0000   1.0000   1.0000
     1.0000   1.0000   1.0000   1.0000   1.0000   1.0000   1.0000   1.0000
     1.0000   1.0000   1.0000   1.0000   1.0000   1.0000   1.0000   1.0000
     1.0000   1.0000   1.0000   1.0000   1.0000   1.0000   1.0000   1.0000
     1.0000   1.0000   1.0000   1.0000   1.0000   1.0000   1.0000   1.0000
     1.0000   1.0000   1.0000   1.0000   1.0000   1.0000   1.0000   1.0000
     1.0000   1.0000   1.0000   1.0000   1.0000   1.0000   1.0000   1.0000
     1.0000   1.0000   1.0000   1.0000   1.0000   1.0000   1.0000   1.0000
     1.0000   1.0000   1.0000   1.0000   1.0000   1.0000   1.0000   1.0000
     1.0000   1.0000   1.0000   1.0000   1.0000   1.0000   1.0000   1.0000
     1.0000   1.0000   1.0000   1.0000   1.0000   1.0000   1.0000   1.0000
     1.0000   1.0000   1.0000   1.0000   1.0000   1.0000   1.0000   1.0000
     1.0000   1.0000   1.0000   1.0000   1.0000   1.0000   1.0000   1.0000
     1.0000   1.0000   1.0000   1.0000   1.0000   1.0000   1.0000   1.0000
     1.0000   1.0000   1.0000   1.0000   1.0000   1.0000   1.0000   1.0000
     1.0000   1.0000   1.0000   1.0000   1.0000   1.0000   1.0000   1.0000
     1.0000   1.0000   1.0000   1.0000   1.0000   1.0000   1.0000   1.0000
     1.0000   1.0000   1.0000   1.0000   1.0000   1.0000   1.0000   1.0000
     1.0000   1.0000   1.0000   1.0000   1.0000   1.0000   1.0000   1.0000
     1.0000   1.0000   1.0000   1.0000   1.0000   1.0000   1.0000   1.0000
     1.0000   1.0000   1.0000   1.0000   1.0000   1.0000   1.0000   1.0000
     1.0000   1.0000   1.0000   1.0000   1.0000   1.0000   1.0000   1.0000
     1.0000   1.0000   1.0000   1.0000   1.0000   1.0000   1.0000   1.0000
     1.0000   1.0000   1.0000   1.0000   1.0000   1.0000   1.0000   1.0000
     1.0000   1.0000   1.0000   1.0000   1.0000   1.0000   1.0000   1.0000
     1.0000   1.0000   1.0000   1.0000   1.0000   1.0000   1.0000   1.0000
     1.0000   1.0000   1.0000   1.0000   1.0000   1.0000   1.0000   1.0000
     1.0000   1.0000   1.0000   1.0000   1.0000   1.0000   1.0000   1.0000
     1.0000   1.0000   1.0000   1.0000   1.0000   1.0000   1.0000   1.0000
     1.0000   1.0000   1.0000   1.0000   1.0000   1.0000   1.0000   1.0000
     1.0000   1.0000   1.0000   1.0000   1.0000   1.0000   1.0000   1.0000
     1.0000   1.0000   1.0000   1.0000   1.0000   1.0000   1.0000   1.0000
     1.0000   1.0000   1.0000   1.0000   1.0000   1.0000   1.0000   1.0000
     1.0000   1.0000   1.0000   1.0000   1.0000   1.0000   1.0000   1.0000
     1.0000   1.0000   1.0000   1.0000   1.0000   1.0000   1.0000   1.0000
     1.0000   1.0000   1.0000   1.0000   1.0000   1.0000   1.0000   1.0000
     1.0000   1.0000   1.0000   1.0000   1.0000   1.0000   1.0000   1.0000
     1.0000   1.0000   1.0000   1.0000   1.0000   1.0000   1.0000   1.0000
     1.0000   1.0000   1.0000   1.0000   1.0000   1.0000   1.0000   1.0000
     1.0000   1.0000   1.0000   1.0000   1.0000   1.0000   1.0000   1.0000
     1.0000   1.0000   1.0000   1.0000   1.0000   1.0000   1.0000   1.0000
     1.0000   1.0000   1.0000   1.0000   1.0000   1.0000   1.0000   1.0000
     1.0000   1.0000   1.0000   1.0000   1.0000   1.0000   1.0000   1.0000
     1.0000   1.0000   1.0000   1.0000   1.0000   1.0000   1.0000   1.0000
     1.0000   1.0000   1.0000   1.0000   1.0000   1.0000   1.0000   1.0000
     1.0000   1.0000   1.0000   1.0000   1.0000   1.0000   1.0000   1.0000
     1.0000   1.0000   1.0000   1.0000   1.0000   1.0000   1.0000   1.0000
     1.0000   1.0000   1.0000   1.0000   1.0000   1.0000   1.0000   1.0000
     1.0000   1.0000   1.0000   1.0000   1.0000   1.0000   1.0000   1.0000
     1.0000   1.0000   1.0000   1.0000   1.0000   1.0000   1.0000   1.0000
     1.0000   1.0000   1.0000   1.0000   1.0000   1.0000   1.0000   1.0000
     1.0000   1.0000   1.0000   1.0000   1.0000   1.0000   1.0000   1.0000
     1.0000   1.0000   1.0000   1.0000   1.0000   1.0000   1.0000   1.0000
     1.0000   1.0000   1.0000   1.0000   1.0000   1.0000   1.0000   1.0000
     1.0000   1.0000   1.0000   1.0000   1.0000   1.0000   1.0000   1.0000
     1.0000   1.0000   1.0000   1.0000   1.0000   1.0000   1.0000   1.0000
     1.0000   1.0000   0.9998   0.9997   0.9996   0.9995   0.9995   0.9994
     0.9994   0.9994   0.9992   0.9992   0.9988   0.9979   0.9974   0.9970
     0.9962   0.9962   0.9957   0.9956   0.9955   0.9950   0.9919   0.9906
     0.9866   0.9837   0.9830   0.9808   0.9730   0.9651   0.9628   0.9608
     0.9513   0.9332   0.9280   0.9160   0.9141   0.9137   0.9090   0.9059
     0.9056   0.8968   0.8897   0.8861   0.8707   0.8553   0.8548   0.8479
     0.8448   0.8087   0.8029   0.7954   0.7779   0.7528   0.6448   0.6360
     0.6108   0.6093   0.5985   0.5973   0.5840   0.5834   0.5507   0.5380
     0.5330   0.5298   0.4661   0.4269   0.4140   0.4094   0.3992   0.3838
     0.2689   0.2575   0.2309   0.2180   0.2111   0.2077   0.1918   0.1717
     0.1635   0.1549   0.0927   0.0890   0.0871   0.0736   0.0613   0.0571
     0.0327   0.0311   0.0292   0.0263   0.0072   0.0063   0.0053   0.0052
     0.0004   0.0003   0.0003   0.0002   0.0002   0.0002   0.0002   0.0002
     0.0001   0.0001   0.0001   0.0001   0.0000   0.0000   0.0000   0.0000
     0.0000   0.0000   0.0000   0.0000   0.0000   0.0000   0.0000   0.0000
     0.0000   0.0000   0.0000   0.0000   0.0000   0.0000   0.0000   0.0000
     0.0000   0.0000   0.0000   0.0000   0.0000   0.0000   0.0000   0.0000
     0.0000   0.0000   0.0000   0.0000   0.0000   0.0000   0.0000   0.0000
     0.0000   0.0000   0.0000   0.0000   0.0000   0.0000   0.0000   0.0000
     0.0000   0.0000   0.0000   0.0000   0.0000   0.0000   0.0000   0.0000
     0.0000   0.0000   0.0000   0.0000   0.0000   0.0000   0.0000   0.0000
     0.0000   0.0000   0.0000   0.0000   0.0000   0.0000   0.0000   0.0000
     0.0000   0.0000   0.0000   0.0000   0.0000   0.0000   0.0000   0.0000
     0.0000   0.0000   0.0000   0.0000   0.0000   0.0000   0.0000   0.0000
     0.0000   0.0000   0.0000   0.0000   0.0000   0.0000   0.0000   0.0000
     0.0000   0.0000   0.0000   0.0000   0.0000   0.0000   0.0000   0.0000
     0.0000   0.0000   0.0000   0.0000   0.0000   0.0000   0.0000   0.0000
     0.0000   0.0000   0.0000   0.0000   0.0000   0.0000   0.0000   0.0000
     0.0000   0.0000   0.0000   0.0000   0.0000   0.0000   0.0000   0.0000
     0.0000   0.0000   0.0000   0.0000   0.0000   0.0000   0.0000   0.0000
     0.0000   0.0000   0.0000   0.0000   0.0000   0.0000   0.0000   0.0000

          k =-0.2500 0.4330 0.0000 (100652 PWs)   bands (ev):

   -69.1493 -69.1395 -69.0695 -69.0554 -69.0343 -69.0339 -69.0324 -69.0318
   -69.0189 -69.0185 -69.0185 -69.0181 -69.0164 -69.0160 -69.0131 -69.0127
   -69.0127 -69.0118 -69.0091 -69.0071 -69.0070 -69.0068 -69.0067 -69.0067
   -69.0065 -69.0064 -69.0062 -69.0047 -69.0044 -69.0043 -69.0041 -69.0014
   -68.9951 -68.9951 -68.9774 -68.9771 -68.6456 -68.6421 -68.6413 -68.6397
   -68.6393 -68.6365 -68.6365 -68.6360 -68.6360 -68.6345 -68.6344 -68.6341
   -68.6341 -68.6333 -68.6331 -68.6328 -68.6326 -68.6325 -68.6324 -68.6320
   -68.6319 -68.6319 -68.6316 -68.6314 -68.6314 -68.6311 -68.6311 -68.6308
   -68.6307 -68.6302 -68.6292 -68.6292 -68.6287 -68.6287 -68.6236 -68.6236
   -35.4825 -35.4063 -35.3481 -35.3040 -35.3037 -35.3035 -35.3029 -35.3002
   -35.2992 -35.2958 -35.2958 -35.2954 -35.2951 -35.2886 -35.2885 -35.2548
   -35.2401 -35.2369 -35.2364 -35.2359 -35.2359 -35.2356 -35.2347 -35.2305
   -35.2302 -35.2291 -35.2281 -35.2270 -35.2267 -35.2262 -35.2258 -35.2256
   -35.2251 -35.2244 -35.2199 -35.2196 -35.2180 -35.2174 -35.2165 -35.1874
   -35.1822 -35.1814 -35.1790 -35.1781 -35.1764 -35.1737 -35.1733 -35.1729
   -35.1722 -35.1719 -35.1714 -35.1709 -35.1706 -35.1702 -35.1691 -35.1688
   -35.1683 -35.1646 -35.1643 -35.1629 -35.1610 -35.1597 -35.1594 -35.1587
   -35.1584 -35.1572 -35.1553 -35.1552 -35.1545 -35.1544 -35.1373 -35.1359
   -35.1074 -35.1012 -35.0870 -35.0694 -35.0506 -35.0447 -35.0434 -35.0422
   -35.0385 -35.0358 -35.0326 -35.0317 -35.0312 -35.0272 -35.0255 -35.0234
   -35.0203 -35.0201 -35.0193 -35.0173 -35.0170 -35.0160 -35.0149 -35.0147
   -35.0137 -35.0131 -35.0119 -35.0111 -35.0085 -35.0063 -35.0044 -35.0017
   -34.9980 -34.9975 -34.9935 -34.9859 -34.8399 -34.8395 -34.8331 -34.8307
   -34.8300 -34.8298 -34.8293 -34.8266 -34.8266 -34.8257 -34.8257 -34.8255
   -34.8241 -34.8234 -34.8229 -34.8226 -34.8224 -34.8223 -34.8219 -34.8215
   -34.8215 -34.8209 -34.8203 -34.8201 -34.8198 -34.8192 -34.8192 -34.8184
   -34.8180 -34.8171 -34.8162 -34.8155 -34.8144 -34.8112 -34.8081 -34.8060
   -34.7682 -34.7671 -34.7667 -34.7657 -34.7645 -34.7636 -34.7624 -34.7614
   -34.7608 -34.7605 -34.7600 -34.7598 -34.7597 -34.7591 -34.7589 -34.7576
   -34.7571 -34.7568 -34.7562 -34.7557 -34.7556 -34.7545 -34.7545 -34.7542
   -34.7542 -34.7540 -34.7526 -34.7525 -34.7514 -34.7510 -34.7509 -34.7501
   -34.7500 -34.7491 -34.7399 -34.7391 -34.7077 -34.7019 -34.6987 -34.6974
   -34.6967 -34.6956 -34.6952 -34.6934 -34.6933 -34.6929 -34.6911 -34.6879
   -34.6872 -34.6869 -34.6854 -34.6845 -34.6843 -34.6801 -34.6798 -34.6789
   -34.6786 -34.6774 -34.6769 -34.6757 -34.6753 -34.6746 -34.6732 -34.6728
   -34.6728 -34.6726 -34.6725 -34.6717 -34.6712 -34.6709 -34.6634 -34.6632
     3.4831   3.7503   3.7976   4.4326   4.4898   4.5381   4.5838   4.7002
     4.7527   4.7610   4.7632   4.9406   5.0464   5.0580   5.2151   5.2218
     5.2904   5.3140   5.3522   5.3672   5.3757   5.5470   5.5589   5.5654
     5.5741   5.5812   5.5821   5.5958   5.6615   5.6636   5.8605   5.8712
     5.8802   5.8803   6.0395   6.0415   8.7279   9.9444   9.9848  10.1117
    10.1312  10.1460  10.2051  10.2931  10.3180  10.3241  10.3255  10.3551
    10.3660  10.4847  10.5134  10.6399  10.6987  10.7103  10.7126  10.7334
    10.7372  10.7423  10.7432  10.7992  10.8093  10.8722  10.8999  10.9332
    10.9797  10.9828  10.9862  11.0526  11.1147  11.3460  11.4709  11.4741
    11.5459  11.5497  11.5528  11.5750  11.5777  11.6099  11.7309  11.8057
    11.8187  11.9390  12.0014  12.0093  12.0096  12.0122  12.0167  12.0627
    12.0978  12.1339  12.1414  12.2447  12.2741  12.2983  12.3219  12.3538
    12.3810  12.3830  12.3951  12.4138  12.4245  12.5993  12.6130  12.6190
    12.6237  12.6426  12.7048  12.7137  12.7511  12.7858  12.7918  12.7994
    12.8151  12.8537  12.8953  12.9147  12.9220  12.9385  12.9500  12.9505
    12.9681  12.9707  12.9770  12.9886  13.0505  13.0586  13.1790  13.1822
    13.1904  13.1960  13.2689  13.3486  13.3566  13.3570  13.3628  13.4323
    13.4671  13.4825  13.4949  13.5507  13.6013  13.6873  14.0712  14.0809
    14.1062  14.3506  14.3610  14.3823  14.5610  14.5612  14.6307  14.6486
    14.6625  14.6625  14.6716  14.6763  14.6801  14.6950  14.7228  14.7305
    14.7369  14.7818  14.7896  14.8008  14.8062  14.8070  14.8109  14.8145
    14.8205  14.8249  14.8256  14.8460  14.8495  14.8546  14.8571  14.8601
    14.8666  14.9038  14.9039  14.9292  14.9418  14.9438  14.9659  14.9665
    14.9694  14.9757  15.0411  15.0879  15.1096  15.1232  15.1290  15.1301
    15.1912  15.2014  15.2036  15.2143  15.2212  15.2270  15.2289  15.2324
    15.2422  15.2687  15.2873  15.3168  15.3553  15.3629  15.3760  15.3877
    15.3923  15.3976  15.3982  15.4259  15.4366  15.4513  15.4573  15.5176
    15.5248  15.5276  15.5322  15.5625  15.5860  15.5954  15.5973  15.6025
    15.8853  15.9308  15.9628  15.9670  15.9720  15.9776  15.9785  15.9919
    15.9965  16.0124  16.0159  16.0161  16.0215  16.0231  16.0259  16.0283
    16.0314  16.0391  16.0521  16.0597  16.0615  16.0666  16.0683  16.0792
    16.0817  16.0930  16.1014  16.1076  16.1651  16.1788  16.1866  16.2078
    16.2909  16.3030  16.3620  16.3698  16.3715  16.3838  16.4260  16.4270
    16.4913  16.4923  16.5372  16.5434  16.5491  16.5517  16.5558  16.5625
    16.5865  16.6132  16.6267  16.6600  16.6617  16.6700  16.6707  16.6868
    16.6985  16.7216  16.7231  16.7473  16.7548  16.7717  16.7732  16.7829
    16.7853  16.7922  16.7972  16.8340  16.8349  16.8575  16.8770  16.8864
    16.8917  16.9295  16.9491  16.9758  16.9902  16.9945  17.0051  17.0196
    17.0207  17.0246  17.0347  17.0450  17.0480  17.0508  17.0513  17.0574
    17.0637  17.0663  17.0707  17.0870  17.0892  17.1532  17.1731  17.1738
    17.1821  17.1827  17.1952  17.2088  17.2170  17.2239  17.2383  17.2412
    17.2455  17.2540  17.2571  17.2769  17.2846  17.3023  17.3098  17.3197
    17.3292  17.3362  17.3600  17.3674  17.3785  17.3871  17.4484  17.4561
    17.4655  17.4667  17.4687  17.4794  17.5053  17.5076  17.5165  17.5235
    17.5264  17.5326  17.5504  17.5509  17.6338  17.7284  17.8147  17.8267
    17.8280  17.8349  17.8372  17.8389  17.8461  17.8752  17.8826  17.9009
    17.9062  17.9203  17.9226  17.9324  17.9349  17.9402  17.9415  17.9874
    17.9930  17.9934  17.9977  18.0089  18.0282  18.0397  18.0413  18.0505
    18.0602  18.0632  18.0703  18.0777  18.0949  18.1140  18.1174  18.1190
    18.1201  18.1256  18.1296  18.1360  18.1364  18.1459  18.1539  18.1571
    18.1663  18.1665  18.1760  18.1771  18.1787  18.1815  18.2119  18.2146
    18.2204  18.2245  18.2360  18.2406  18.2786  18.2863  18.2882  18.2885
    18.2921  18.2959  18.3075  18.3136  18.3177  18.3226  18.3623  18.3647
    18.3690  18.3705  18.3735  18.3811  18.3831  18.3882  18.4581  18.4698
    18.4742  18.6005  18.7772  18.7921  18.8971  18.9055  18.9143  18.9627
    19.1188  19.1339  19.1453  19.1636  19.1736  19.1798  19.2532  19.2744
    19.2778  19.2907  19.2974  19.2991  19.3102  19.3124  19.3274  19.3982
    19.4143  19.4906  19.5014  19.5676  19.5877  19.5879  19.5935  19.6197
    19.6268  19.7051  19.7352  19.7394  19.7434  19.7503  19.9064  19.9228
    19.9509  20.0788  20.1053  20.1308  20.1340  20.1646  20.1939  20.1953
    20.2079  20.2779  20.3287  20.3613  20.3713  20.3865  20.3979  20.3995
    20.4082  20.4129  20.4147  20.5048  20.5229  20.5253  20.5749  20.6092
    20.6210  20.6228  20.6613  20.9286  20.9822  20.9974  21.0419  21.0616
    21.1916  21.4736  21.5239  21.6166  21.6365  21.6418  21.6906  21.6960

     occupation numbers 
     1.0000   1.0000   1.0000   1.0000   1.0000   1.0000   1.0000   1.0000
     1.0000   1.0000   1.0000   1.0000   1.0000   1.0000   1.0000   1.0000
     1.0000   1.0000   1.0000   1.0000   1.0000   1.0000   1.0000   1.0000
     1.0000   1.0000   1.0000   1.0000   1.0000   1.0000   1.0000   1.0000
     1.0000   1.0000   1.0000   1.0000   1.0000   1.0000   1.0000   1.0000
     1.0000   1.0000   1.0000   1.0000   1.0000   1.0000   1.0000   1.0000
     1.0000   1.0000   1.0000   1.0000   1.0000   1.0000   1.0000   1.0000
     1.0000   1.0000   1.0000   1.0000   1.0000   1.0000   1.0000   1.0000
     1.0000   1.0000   1.0000   1.0000   1.0000   1.0000   1.0000   1.0000
     1.0000   1.0000   1.0000   1.0000   1.0000   1.0000   1.0000   1.0000
     1.0000   1.0000   1.0000   1.0000   1.0000   1.0000   1.0000   1.0000
     1.0000   1.0000   1.0000   1.0000   1.0000   1.0000   1.0000   1.0000
     1.0000   1.0000   1.0000   1.0000   1.0000   1.0000   1.0000   1.0000
     1.0000   1.0000   1.0000   1.0000   1.0000   1.0000   1.0000   1.0000
     1.0000   1.0000   1.0000   1.0000   1.0000   1.0000   1.0000   1.0000
     1.0000   1.0000   1.0000   1.0000   1.0000   1.0000   1.0000   1.0000
     1.0000   1.0000   1.0000   1.0000   1.0000   1.0000   1.0000   1.0000
     1.0000   1.0000   1.0000   1.0000   1.0000   1.0000   1.0000   1.0000
     1.0000   1.0000   1.0000   1.0000   1.0000   1.0000   1.0000   1.0000
     1.0000   1.0000   1.0000   1.0000   1.0000   1.0000   1.0000   1.0000
     1.0000   1.0000   1.0000   1.0000   1.0000   1.0000   1.0000   1.0000
     1.0000   1.0000   1.0000   1.0000   1.0000   1.0000   1.0000   1.0000
     1.0000   1.0000   1.0000   1.0000   1.0000   1.0000   1.0000   1.0000
     1.0000   1.0000   1.0000   1.0000   1.0000   1.0000   1.0000   1.0000
     1.0000   1.0000   1.0000   1.0000   1.0000   1.0000   1.0000   1.0000
     1.0000   1.0000   1.0000   1.0000   1.0000   1.0000   1.0000   1.0000
     1.0000   1.0000   1.0000   1.0000   1.0000   1.0000   1.0000   1.0000
     1.0000   1.0000   1.0000   1.0000   1.0000   1.0000   1.0000   1.0000
     1.0000   1.0000   1.0000   1.0000   1.0000   1.0000   1.0000   1.0000
     1.0000   1.0000   1.0000   1.0000   1.0000   1.0000   1.0000   1.0000
     1.0000   1.0000   1.0000   1.0000   1.0000   1.0000   1.0000   1.0000
     1.0000   1.0000   1.0000   1.0000   1.0000   1.0000   1.0000   1.0000
     1.0000   1.0000   1.0000   1.0000   1.0000   1.0000   1.0000   1.0000
     1.0000   1.0000   1.0000   1.0000   1.0000   1.0000   1.0000   1.0000
     1.0000   1.0000   1.0000   1.0000   1.0000   1.0000   1.0000   1.0000
     1.0000   1.0000   1.0000   1.0000   1.0000   1.0000   1.0000   1.0000
     1.0000   1.0000   1.0000   1.0000   1.0000   1.0000   1.0000   1.0000
     1.0000   1.0000   1.0000   1.0000   1.0000   1.0000   1.0000   1.0000
     1.0000   1.0000   1.0000   1.0000   1.0000   1.0000   1.0000   1.0000
     1.0000   1.0000   1.0000   1.0000   1.0000   1.0000   1.0000   1.0000
     1.0000   1.0000   1.0000   1.0000   1.0000   1.0000   1.0000   1.0000
     1.0000   1.0000   1.0000   1.0000   1.0000   1.0000   1.0000   1.0000
     1.0000   1.0000   1.0000   1.0000   1.0000   1.0000   1.0000   1.0000
     1.0000   1.0000   1.0000   1.0000   1.0000   1.0000   1.0000   1.0000
     1.0000   1.0000   1.0000   1.0000   1.0000   1.0000   1.0000   1.0000
     1.0000   1.0000   1.0000   1.0000   1.0000   1.0000   1.0000   1.0000
     1.0000   1.0000   1.0000   1.0000   1.0000   1.0000   1.0000   1.0000
     1.0000   1.0000   1.0000   1.0000   1.0000   1.0000   1.0000   1.0000
     1.0000   1.0000   1.0000   1.0000   1.0000   1.0000   1.0000   1.0000
     1.0000   1.0000   1.0000   1.0000   1.0000   1.0000   1.0000   1.0000
     1.0000   1.0000   1.0000   1.0000   1.0000   1.0000   1.0000   1.0000
     1.0000   1.0000   1.0000   1.0000   1.0000   1.0000   1.0000   1.0000
     1.0000   1.0000   1.0000   1.0000   1.0000   1.0000   1.0000   1.0000
     1.0000   1.0000   1.0000   1.0000   1.0000   1.0000   1.0000   1.0000
     1.0000   1.0000   1.0000   1.0000   1.0000   1.0000   1.0000   1.0000
     1.0000   1.0000   1.0000   1.0000   1.0000   1.0000   1.0000   1.0000
     1.0000   1.0000   1.0000   1.0000   1.0000   1.0000   1.0000   1.0000
     1.0000   1.0000   1.0000   1.0000   1.0000   1.0000   1.0000   1.0000
     1.0000   1.0000   1.0000   1.0000   1.0000   1.0000   1.0000   1.0000
     1.0000   1.0000   1.0000   1.0000   1.0000   1.0000   1.0000   1.0000
     1.0000   1.0000   1.0000   1.0000   1.0000   1.0000   1.0000   1.0000
     1.0000   1.0000   1.0000   1.0000   1.0000   1.0000   1.0000   1.0000
     1.0000   1.0000   1.0000   1.0000   1.0000   1.0000   1.0000   1.0000
     1.0000   1.0000   1.0000   1.0000   1.0000   1.0000   1.0000   1.0000
     1.0000   1.0000   1.0000   1.0000   1.0000   1.0000   1.0000   1.0000
     1.0000   1.0000   1.0000   1.0000   1.0000   1.0000   1.0000   1.0000
     1.0000   1.0000   1.0000   1.0000   1.0000   1.0000   1.0000   1.0000
     1.0000   1.0000   1.0000   1.0000   1.0000   1.0000   1.0000   1.0000
     1.0000   1.0000   1.0000   1.0000   1.0000   1.0000   1.0000   1.0000
     0.9999   0.9999   0.9998   0.9997   0.9997   0.9997   0.9997   0.9996
     0.9994   0.9991   0.9988   0.9979   0.9979   0.9976   0.9976   0.9968
     0.9962   0.9946   0.9945   0.9922   0.9913   0.9890   0.9887   0.9872
     0.9867   0.9855   0.9845   0.9753   0.9750   0.9673   0.9592   0.9548
     0.9521   0.9291   0.9142   0.8903   0.8756   0.8710   0.8591   0.8415
     0.8401   0.8351   0.8219   0.8076   0.8032   0.7992   0.7985   0.7895
     0.7798   0.7758   0.7690   0.7424   0.7386   0.6204   0.5805   0.5791
     0.5621   0.5609   0.5351   0.5070   0.4900   0.4757   0.4460   0.4401
     0.4313   0.4140   0.4078   0.3683   0.3533   0.3197   0.3060   0.2881
     0.2716   0.2596   0.2212   0.2099   0.1937   0.1816   0.1098   0.1024
     0.0940   0.0930   0.0912   0.0825   0.0638   0.0623   0.0569   0.0528
     0.0512   0.0479   0.0394   0.0392   0.0142   0.0036   0.0009   0.0007
     0.0007   0.0006   0.0006   0.0006   0.0005   0.0003   0.0002   0.0002
     0.0002   0.0001   0.0001   0.0001   0.0001   0.0001   0.0001   0.0000
     0.0000   0.0000   0.0000   0.0000   0.0000   0.0000   0.0000   0.0000
     0.0000   0.0000   0.0000   0.0000   0.0000   0.0000   0.0000   0.0000
     0.0000   0.0000   0.0000   0.0000   0.0000   0.0000   0.0000   0.0000
     0.0000   0.0000   0.0000   0.0000   0.0000   0.0000   0.0000   0.0000
     0.0000   0.0000   0.0000   0.0000   0.0000   0.0000   0.0000   0.0000
     0.0000   0.0000   0.0000   0.0000   0.0000   0.0000   0.0000   0.0000
     0.0000   0.0000   0.0000   0.0000   0.0000   0.0000   0.0000   0.0000
     0.0000   0.0000   0.0000   0.0000   0.0000   0.0000   0.0000   0.0000
     0.0000   0.0000   0.0000   0.0000   0.0000   0.0000   0.0000   0.0000
     0.0000   0.0000   0.0000   0.0000   0.0000   0.0000   0.0000   0.0000
     0.0000   0.0000   0.0000   0.0000   0.0000   0.0000   0.0000   0.0000
     0.0000   0.0000   0.0000   0.0000   0.0000   0.0000   0.0000   0.0000
     0.0000   0.0000   0.0000   0.0000   0.0000   0.0000   0.0000   0.0000
     0.0000   0.0000   0.0000   0.0000   0.0000   0.0000   0.0000   0.0000
     0.0000   0.0000   0.0000   0.0000   0.0000   0.0000   0.0000   0.0000
     0.0000   0.0000   0.0000   0.0000   0.0000   0.0000   0.0000   0.0000
     0.0000   0.0000   0.0000   0.0000   0.0000   0.0000   0.0000   0.0000

          k =-0.2500 0.4330-0.2850 (100562 PWs)   bands (ev):

   -69.1493 -69.1395 -69.0695 -69.0554 -69.0343 -69.0339 -69.0324 -69.0318
   -69.0189 -69.0185 -69.0185 -69.0181 -69.0164 -69.0160 -69.0131 -69.0127
   -69.0127 -69.0118 -69.0091 -69.0071 -69.0070 -69.0068 -69.0067 -69.0067
   -69.0065 -69.0064 -69.0062 -69.0047 -69.0044 -69.0043 -69.0041 -69.0014
   -68.9951 -68.9951 -68.9774 -68.9771 -68.6456 -68.6421 -68.6413 -68.6397
   -68.6393 -68.6365 -68.6365 -68.6360 -68.6360 -68.6345 -68.6344 -68.6341
   -68.6341 -68.6333 -68.6331 -68.6328 -68.6326 -68.6325 -68.6324 -68.6320
   -68.6319 -68.6319 -68.6316 -68.6314 -68.6314 -68.6311 -68.6311 -68.6308
   -68.6307 -68.6302 -68.6292 -68.6292 -68.6287 -68.6287 -68.6236 -68.6236
   -35.4825 -35.4063 -35.3481 -35.3039 -35.3037 -35.3035 -35.3029 -35.3002
   -35.2992 -35.2961 -35.2956 -35.2953 -35.2951 -35.2886 -35.2885 -35.2547
   -35.2401 -35.2373 -35.2365 -35.2361 -35.2356 -35.2353 -35.2347 -35.2306
   -35.2300 -35.2289 -35.2281 -35.2274 -35.2266 -35.2265 -35.2256 -35.2255
   -35.2250 -35.2245 -35.2199 -35.2197 -35.2179 -35.2175 -35.2165 -35.1874
   -35.1822 -35.1814 -35.1792 -35.1778 -35.1765 -35.1737 -35.1730 -35.1727
   -35.1719 -35.1717 -35.1714 -35.1708 -35.1707 -35.1704 -35.1694 -35.1691
   -35.1681 -35.1647 -35.1642 -35.1630 -35.1609 -35.1596 -35.1594 -35.1585
   -35.1582 -35.1570 -35.1564 -35.1554 -35.1544 -35.1537 -35.1374 -35.1358
   -35.1074 -35.1013 -35.0871 -35.0697 -35.0505 -35.0460 -35.0436 -35.0426
   -35.0383 -35.0355 -35.0327 -35.0311 -35.0292 -35.0273 -35.0255 -35.0250
   -35.0207 -35.0197 -35.0181 -35.0174 -35.0169 -35.0161 -35.0141 -35.0135
   -35.0132 -35.0119 -35.0114 -35.0111 -35.0083 -35.0071 -35.0052 -35.0026
   -34.9987 -34.9982 -34.9932 -34.9862 -34.8412 -34.8383 -34.8332 -34.8324
   -34.8314 -34.8308 -34.8273 -34.8270 -34.8261 -34.8259 -34.8254 -34.8251
   -34.8238 -34.8233 -34.8230 -34.8224 -34.8223 -34.8220 -34.8214 -34.8212
   -34.8209 -34.8205 -34.8201 -34.8198 -34.8195 -34.8192 -34.8185 -34.8182
   -34.8177 -34.8172 -34.8156 -34.8152 -34.8147 -34.8123 -34.8095 -34.8076
   -34.7668 -34.7664 -34.7654 -34.7648 -34.7636 -34.7633 -34.7619 -34.7615
   -34.7610 -34.7607 -34.7604 -34.7592 -34.7586 -34.7583 -34.7580 -34.7574
   -34.7571 -34.7570 -34.7567 -34.7564 -34.7561 -34.7559 -34.7554 -34.7552
   -34.7549 -34.7546 -34.7544 -34.7542 -34.7538 -34.7530 -34.7506 -34.7485
   -34.7477 -34.7464 -34.7405 -34.7383 -34.7077 -34.7019 -34.6986 -34.6974
   -34.6967 -34.6956 -34.6952 -34.6935 -34.6932 -34.6929 -34.6910 -34.6878
   -34.6874 -34.6867 -34.6853 -34.6846 -34.6842 -34.6800 -34.6798 -34.6790
   -34.6784 -34.6778 -34.6766 -34.6756 -34.6753 -34.6746 -34.6731 -34.6728
   -34.6728 -34.6726 -34.6724 -34.6717 -34.6713 -34.6708 -34.6634 -34.6631
     3.5530   3.8152   3.8653   4.0956   4.3284   4.3732   4.5198   4.6328
     4.9208   4.9479   4.9918   5.0457   5.0929   5.1020   5.1353   5.1602
     5.3284   5.3404   5.3908   5.4020   5.4076   5.4158   5.4730   5.5589
     5.5758   5.6212   5.6296   5.6346   5.6454   5.6858   5.6964   5.7631
     5.8792   6.0147   6.0305   6.1690   8.7198   9.8494  10.0075  10.0359
    10.0743  10.1066  10.1367  10.2034  10.2329  10.2622  10.2759  10.3328
    10.3473  10.3576  10.3819  10.4037  10.4159  10.4966  10.5663  10.6048
    10.6573  10.7155  10.7204  10.7603  10.7932  10.8359  10.9313  11.0531
    11.0605  11.2635  11.3593  11.3666  11.4244  11.4862  11.6032  11.6202
    11.6337  11.6457  11.6547  11.6881  11.7050  11.7262  11.7815  11.8382
    11.8707  11.9422  11.9862  11.9882  12.1086  12.1614  12.2092  12.2298
    12.2439  12.2532  12.2628  12.2827  12.2867  12.3037  12.3795  12.4006
    12.4085  12.4394  12.4523  12.4611  12.4755  12.4794  12.4857  12.5047
    12.5497  12.5644  12.5999  12.6100  12.6203  12.6761  12.7607  12.7878
    12.8181  12.8555  12.8682  12.8733  12.8856  12.9110  12.9260  12.9498
    13.0103  13.0236  13.0417  13.0561  13.0719  13.1177  13.1314  13.1575
    13.2017  13.2088  13.2099  13.3012  13.3132  13.3246  13.3730  13.3904
    13.4033  13.4117  13.4222  13.4240  13.4911  13.5571  13.6157  13.6683
    13.7187  14.5635  14.5916  14.5953  14.6146  14.6577  14.6591  14.6679
    14.6752  14.6800  14.6895  14.6929  14.6974  14.7011  14.7036  14.7271
    14.7395  14.7508  14.7671  14.7730  14.7850  14.7897  14.8005  14.8026
    14.8075  14.8114  14.8319  14.8358  14.8380  14.8464  14.8510  14.8697
    14.9086  14.9222  14.9423  14.9482  14.9504  14.9582  14.9610  14.9641
    14.9962  14.9989  15.0572  15.0869  15.1140  15.1240  15.1487  15.1574
    15.1644  15.1713  15.1822  15.1864  15.1974  15.2010  15.2093  15.2157
    15.2318  15.2373  15.2519  15.2653  15.2717  15.2837  15.3139  15.3339
    15.3414  15.3502  15.3587  15.4107  15.4142  15.4401  15.4685  15.4728
    15.4997  15.5475  15.5713  15.5729  15.5939  15.6608  15.6656  15.7194
    15.8143  15.8706  15.8729  15.9064  15.9127  15.9437  15.9657  15.9851
    16.0005  16.0064  16.0114  16.0211  16.0236  16.0303  16.0354  16.0535
    16.0741  16.0782  16.0868  16.1064  16.1119  16.1180  16.1251  16.1649
    16.1894  16.2006  16.2081  16.2352  16.2504  16.2667  16.3163  16.3210
    16.3271  16.3332  16.3743  16.3813  16.3850  16.3952  16.3979  16.4379
    16.4490  16.4883  16.4953  16.5173  16.5227  16.5564  16.5774  16.5983
    16.6039  16.6075  16.6124  16.6215  16.6375  16.6433  16.6504  16.6728
    16.6979  16.7086  16.7408  16.7488  16.7501  16.7584  16.7733  16.7919
    16.7969  16.8000  16.8048  16.8112  16.8315  16.8564  16.8879  16.9234
    16.9249  16.9392  16.9442  16.9543  16.9647  16.9768  16.9820  16.9862
    16.9930  16.9962  17.0051  17.0131  17.0171  17.0223  17.0259  17.0324
    17.0348  17.0399  17.0505  17.0573  17.0727  17.1001  17.1279  17.1462
    17.1501  17.1599  17.1810  17.1966  17.2059  17.2102  17.2196  17.2240
    17.2416  17.2467  17.2511  17.2692  17.2772  17.2867  17.2956  17.3027
    17.3083  17.3348  17.3393  17.3756  17.3876  17.3923  17.3951  17.3992
    17.4319  17.4562  17.4743  17.4856  17.4942  17.4981  17.4990  17.5003
    17.5040  17.5428  17.5747  17.5845  17.6395  17.7205  17.7255  17.7346
    17.8534  17.8683  17.8819  17.8859  17.8882  17.8954  17.9099  17.9179
    17.9337  17.9394  17.9455  17.9493  17.9522  17.9580  17.9639  17.9712
    17.9776  18.0021  18.0063  18.0222  18.0283  18.0360  18.0403  18.0460
    18.0548  18.0592  18.0650  18.0813  18.0830  18.0891  18.0932  18.0997
    18.1137  18.1166  18.1307  18.1377  18.1392  18.1424  18.1529  18.1921
    18.2039  18.2087  18.2117  18.2228  18.2255  18.2294  18.2315  18.2393
    18.2462  18.2523  18.2552  18.2606  18.2683  18.2733  18.2931  18.2994
    18.3156  18.3226  18.3293  18.3357  18.3402  18.3661  18.3699  18.3735
    18.3756  18.3841  18.3892  18.3990  18.4017  18.4183  18.4320  18.4509
    18.5198  18.6408  18.7055  18.8159  18.8225  18.8436  18.8595  18.9495
    18.9688  18.9762  19.0542  19.1719  19.1895  19.2070  19.2245  19.2524
    19.2542  19.2628  19.3177  19.3340  19.3422  19.3779  19.4487  19.4791
    19.4913  19.5103  19.5462  19.5636  19.5732  19.6139  19.6199  19.6330
    19.6538  19.6672  19.6893  19.7311  19.7489  19.9106  19.9481  19.9582
    19.9706  20.0208  20.0657  20.0901  20.1002  20.1110  20.1489  20.1636
    20.1658  20.2136  20.2799  20.2876  20.3018  20.3074  20.3197  20.3343
    20.3545  20.3660  20.3881  20.4352  20.5226  20.5337  20.5432  20.5492
    20.6029  20.6292  20.6458  20.6812  20.6935  20.7920  20.9389  20.9764
    21.0912  21.3450  21.4891  21.5673  21.6331  21.8330  21.9662  22.0121

     occupation numbers 
     1.0000   1.0000   1.0000   1.0000   1.0000   1.0000   1.0000   1.0000
     1.0000   1.0000   1.0000   1.0000   1.0000   1.0000   1.0000   1.0000
     1.0000   1.0000   1.0000   1.0000   1.0000   1.0000   1.0000   1.0000
     1.0000   1.0000   1.0000   1.0000   1.0000   1.0000   1.0000   1.0000
     1.0000   1.0000   1.0000   1.0000   1.0000   1.0000   1.0000   1.0000
     1.0000   1.0000   1.0000   1.0000   1.0000   1.0000   1.0000   1.0000
     1.0000   1.0000   1.0000   1.0000   1.0000   1.0000   1.0000   1.0000
     1.0000   1.0000   1.0000   1.0000   1.0000   1.0000   1.0000   1.0000
     1.0000   1.0000   1.0000   1.0000   1.0000   1.0000   1.0000   1.0000
     1.0000   1.0000   1.0000   1.0000   1.0000   1.0000   1.0000   1.0000
     1.0000   1.0000   1.0000   1.0000   1.0000   1.0000   1.0000   1.0000
     1.0000   1.0000   1.0000   1.0000   1.0000   1.0000   1.0000   1.0000
     1.0000   1.0000   1.0000   1.0000   1.0000   1.0000   1.0000   1.0000
     1.0000   1.0000   1.0000   1.0000   1.0000   1.0000   1.0000   1.0000
     1.0000   1.0000   1.0000   1.0000   1.0000   1.0000   1.0000   1.0000
     1.0000   1.0000   1.0000   1.0000   1.0000   1.0000   1.0000   1.0000
     1.0000   1.0000   1.0000   1.0000   1.0000   1.0000   1.0000   1.0000
     1.0000   1.0000   1.0000   1.0000   1.0000   1.0000   1.0000   1.0000
     1.0000   1.0000   1.0000   1.0000   1.0000   1.0000   1.0000   1.0000
     1.0000   1.0000   1.0000   1.0000   1.0000   1.0000   1.0000   1.0000
     1.0000   1.0000   1.0000   1.0000   1.0000   1.0000   1.0000   1.0000
     1.0000   1.0000   1.0000   1.0000   1.0000   1.0000   1.0000   1.0000
     1.0000   1.0000   1.0000   1.0000   1.0000   1.0000   1.0000   1.0000
     1.0000   1.0000   1.0000   1.0000   1.0000   1.0000   1.0000   1.0000
     1.0000   1.0000   1.0000   1.0000   1.0000   1.0000   1.0000   1.0000
     1.0000   1.0000   1.0000   1.0000   1.0000   1.0000   1.0000   1.0000
     1.0000   1.0000   1.0000   1.0000   1.0000   1.0000   1.0000   1.0000
     1.0000   1.0000   1.0000   1.0000   1.0000   1.0000   1.0000   1.0000
     1.0000   1.0000   1.0000   1.0000   1.0000   1.0000   1.0000   1.0000
     1.0000   1.0000   1.0000   1.0000   1.0000   1.0000   1.0000   1.0000
     1.0000   1.0000   1.0000   1.0000   1.0000   1.0000   1.0000   1.0000
     1.0000   1.0000   1.0000   1.0000   1.0000   1.0000   1.0000   1.0000
     1.0000   1.0000   1.0000   1.0000   1.0000   1.0000   1.0000   1.0000
     1.0000   1.0000   1.0000   1.0000   1.0000   1.0000   1.0000   1.0000
     1.0000   1.0000   1.0000   1.0000   1.0000   1.0000   1.0000   1.0000
     1.0000   1.0000   1.0000   1.0000   1.0000   1.0000   1.0000   1.0000
     1.0000   1.0000   1.0000   1.0000   1.0000   1.0000   1.0000   1.0000
     1.0000   1.0000   1.0000   1.0000   1.0000   1.0000   1.0000   1.0000
     1.0000   1.0000   1.0000   1.0000   1.0000   1.0000   1.0000   1.0000
     1.0000   1.0000   1.0000   1.0000   1.0000   1.0000   1.0000   1.0000
     1.0000   1.0000   1.0000   1.0000   1.0000   1.0000   1.0000   1.0000
     1.0000   1.0000   1.0000   1.0000   1.0000   1.0000   1.0000   1.0000
     1.0000   1.0000   1.0000   1.0000   1.0000   1.0000   1.0000   1.0000
     1.0000   1.0000   1.0000   1.0000   1.0000   1.0000   1.0000   1.0000
     1.0000   1.0000   1.0000   1.0000   1.0000   1.0000   1.0000   1.0000
     1.0000   1.0000   1.0000   1.0000   1.0000   1.0000   1.0000   1.0000
     1.0000   1.0000   1.0000   1.0000   1.0000   1.0000   1.0000   1.0000
     1.0000   1.0000   1.0000   1.0000   1.0000   1.0000   1.0000   1.0000
     1.0000   1.0000   1.0000   1.0000   1.0000   1.0000   1.0000   1.0000
     1.0000   1.0000   1.0000   1.0000   1.0000   1.0000   1.0000   1.0000
     1.0000   1.0000   1.0000   1.0000   1.0000   1.0000   1.0000   1.0000
     1.0000   1.0000   1.0000   1.0000   1.0000   1.0000   1.0000   1.0000
     1.0000   1.0000   1.0000   1.0000   1.0000   1.0000   1.0000   1.0000
     1.0000   1.0000   1.0000   1.0000   1.0000   1.0000   1.0000   1.0000
     1.0000   1.0000   1.0000   1.0000   1.0000   1.0000   1.0000   1.0000
     1.0000   1.0000   1.0000   1.0000   1.0000   1.0000   1.0000   1.0000
     1.0000   1.0000   1.0000   1.0000   1.0000   1.0000   1.0000   1.0000
     1.0000   1.0000   1.0000   1.0000   1.0000   1.0000   1.0000   1.0000
     1.0000   1.0000   1.0000   1.0000   1.0000   1.0000   1.0000   1.0000
     1.0000   1.0000   1.0000   1.0000   1.0000   1.0000   1.0000   1.0000
     1.0000   1.0000   1.0000   1.0000   1.0000   1.0000   1.0000   1.0000
     1.0000   1.0000   1.0000   1.0000   1.0000   1.0000   1.0000   1.0000
     1.0000   1.0000   1.0000   1.0000   1.0000   1.0000   1.0000   1.0000
     1.0000   1.0000   1.0000   1.0000   1.0000   1.0000   1.0000   1.0000
     1.0000   1.0000   1.0000   1.0000   1.0000   1.0000   1.0000   1.0000
     1.0000   1.0000   1.0000   1.0000   1.0000   1.0000   1.0000   1.0000
     1.0000   1.0000   1.0000   1.0000   1.0000   1.0000   1.0000   1.0000
     1.0000   1.0000   1.0000   1.0000   1.0000   1.0000   1.0000   1.0000
     1.0000   1.0000   1.0000   1.0000   1.0000   1.0000   1.0000   1.0000
     1.0000   0.9999   0.9999   0.9998   0.9998   0.9997   0.9995   0.9993
     0.9992   0.9992   0.9991   0.9989   0.9986   0.9984   0.9982   0.9975
     0.9962   0.9956   0.9929   0.9920   0.9918   0.9908   0.9887   0.9855
     0.9845   0.9839   0.9829   0.9814   0.9761   0.9678   0.9541   0.9333
     0.9323   0.9220   0.9181   0.9099   0.9009   0.8894   0.8842   0.8799
     0.8726   0.8692   0.8591   0.8496   0.8447   0.8381   0.8335   0.8250
     0.8218   0.8147   0.7996   0.7895   0.7658   0.7198   0.6693   0.6342
     0.6266   0.6070   0.5644   0.5322   0.5129   0.5041   0.4845   0.4755
     0.4393   0.4287   0.4198   0.3835   0.3677   0.3494   0.3324   0.3190
     0.3087   0.2619   0.2544   0.1978   0.1810   0.1747   0.1709   0.1656
     0.1267   0.1023   0.0866   0.0777   0.0714   0.0687   0.0680   0.0671
     0.0647   0.0429   0.0298   0.0265   0.0132   0.0041   0.0038   0.0033
     0.0004   0.0003   0.0003   0.0002   0.0002   0.0002   0.0001   0.0001
     0.0001   0.0001   0.0001   0.0001   0.0001   0.0001   0.0000   0.0000
     0.0000   0.0000   0.0000   0.0000   0.0000   0.0000   0.0000   0.0000
     0.0000   0.0000   0.0000   0.0000   0.0000   0.0000   0.0000   0.0000
     0.0000   0.0000   0.0000   0.0000   0.0000   0.0000   0.0000   0.0000
     0.0000   0.0000   0.0000   0.0000   0.0000   0.0000   0.0000   0.0000
     0.0000   0.0000   0.0000   0.0000   0.0000   0.0000   0.0000   0.0000
     0.0000   0.0000   0.0000   0.0000   0.0000   0.0000   0.0000   0.0000
     0.0000   0.0000   0.0000   0.0000   0.0000   0.0000   0.0000   0.0000
     0.0000   0.0000   0.0000   0.0000   0.0000   0.0000   0.0000   0.0000
     0.0000   0.0000   0.0000   0.0000   0.0000   0.0000   0.0000   0.0000
     0.0000   0.0000   0.0000   0.0000   0.0000   0.0000   0.0000   0.0000
     0.0000   0.0000   0.0000   0.0000   0.0000   0.0000   0.0000   0.0000
     0.0000   0.0000   0.0000   0.0000   0.0000   0.0000   0.0000   0.0000
     0.0000   0.0000   0.0000   0.0000   0.0000   0.0000   0.0000   0.0000
     0.0000   0.0000   0.0000   0.0000   0.0000   0.0000   0.0000   0.0000
     0.0000   0.0000   0.0000   0.0000   0.0000   0.0000   0.0000   0.0000
     0.0000   0.0000   0.0000   0.0000   0.0000   0.0000   0.0000   0.0000
     0.0000   0.0000   0.0000   0.0000   0.0000   0.0000   0.0000   0.0000

          k = 0.2500-0.4330-0.2850 (100562 PWs)   bands (ev):

   -69.1493 -69.1395 -69.0695 -69.0554 -69.0343 -69.0339 -69.0324 -69.0318
   -69.0189 -69.0185 -69.0185 -69.0181 -69.0164 -69.0160 -69.0131 -69.0127
   -69.0127 -69.0118 -69.0091 -69.0071 -69.0070 -69.0068 -69.0067 -69.0067
   -69.0065 -69.0064 -69.0062 -69.0047 -69.0044 -69.0043 -69.0041 -69.0014
   -68.9951 -68.9951 -68.9774 -68.9771 -68.6456 -68.6421 -68.6413 -68.6397
   -68.6393 -68.6365 -68.6365 -68.6360 -68.6360 -68.6345 -68.6344 -68.6341
   -68.6341 -68.6333 -68.6331 -68.6328 -68.6326 -68.6325 -68.6324 -68.6320
   -68.6319 -68.6319 -68.6316 -68.6314 -68.6314 -68.6311 -68.6311 -68.6308
   -68.6307 -68.6302 -68.6292 -68.6292 -68.6287 -68.6287 -68.6236 -68.6236
   -35.4825 -35.4063 -35.3481 -35.3039 -35.3037 -35.3035 -35.3029 -35.3002
   -35.2992 -35.2961 -35.2956 -35.2953 -35.2951 -35.2886 -35.2885 -35.2547
   -35.2401 -35.2373 -35.2365 -35.2361 -35.2356 -35.2353 -35.2347 -35.2306
   -35.2300 -35.2289 -35.2281 -35.2274 -35.2266 -35.2265 -35.2256 -35.2255
   -35.2250 -35.2245 -35.2199 -35.2197 -35.2179 -35.2175 -35.2165 -35.1874
   -35.1822 -35.1814 -35.1792 -35.1778 -35.1765 -35.1737 -35.1730 -35.1727
   -35.1719 -35.1717 -35.1714 -35.1708 -35.1707 -35.1704 -35.1694 -35.1691
   -35.1681 -35.1647 -35.1642 -35.1630 -35.1609 -35.1596 -35.1594 -35.1585
   -35.1582 -35.1570 -35.1564 -35.1554 -35.1544 -35.1537 -35.1374 -35.1358
   -35.1074 -35.1013 -35.0871 -35.0697 -35.0505 -35.0460 -35.0436 -35.0426
   -35.0383 -35.0355 -35.0327 -35.0311 -35.0292 -35.0273 -35.0255 -35.0250
   -35.0207 -35.0197 -35.0181 -35.0174 -35.0169 -35.0161 -35.0142 -35.0135
   -35.0132 -35.0119 -35.0114 -35.0111 -35.0083 -35.0071 -35.0052 -35.0026
   -34.9987 -34.9982 -34.9932 -34.9862 -34.8412 -34.8383 -34.8332 -34.8324
   -34.8314 -34.8308 -34.8273 -34.8270 -34.8261 -34.8259 -34.8254 -34.8251
   -34.8238 -34.8233 -34.8230 -34.8224 -34.8223 -34.8220 -34.8214 -34.8212
   -34.8209 -34.8205 -34.8201 -34.8198 -34.8195 -34.8192 -34.8185 -34.8182
   -34.8177 -34.8172 -34.8156 -34.8152 -34.8147 -34.8123 -34.8095 -34.8076
   -34.7668 -34.7664 -34.7654 -34.7648 -34.7636 -34.7633 -34.7619 -34.7615
   -34.7610 -34.7607 -34.7604 -34.7592 -34.7586 -34.7583 -34.7580 -34.7574
   -34.7571 -34.7570 -34.7567 -34.7564 -34.7561 -34.7559 -34.7554 -34.7552
   -34.7549 -34.7546 -34.7544 -34.7542 -34.7538 -34.7530 -34.7506 -34.7485
   -34.7477 -34.7464 -34.7405 -34.7383 -34.7077 -34.7019 -34.6986 -34.6974
   -34.6967 -34.6956 -34.6952 -34.6935 -34.6932 -34.6929 -34.6910 -34.6878
   -34.6874 -34.6867 -34.6853 -34.6846 -34.6842 -34.6800 -34.6798 -34.6790
   -34.6784 -34.6778 -34.6766 -34.6756 -34.6753 -34.6746 -34.6731 -34.6728
   -34.6727 -34.6726 -34.6724 -34.6717 -34.6713 -34.6708 -34.6634 -34.6631
     3.5530   3.8152   3.8653   4.0956   4.3284   4.3732   4.5198   4.6328
     4.9208   4.9479   4.9918   5.0457   5.0929   5.1020   5.1353   5.1602
     5.3284   5.3404   5.3908   5.4020   5.4076   5.4158   5.4730   5.5589
     5.5758   5.6212   5.6296   5.6346   5.6454   5.6858   5.6964   5.7631
     5.8792   6.0147   6.0305   6.1690   8.7198   9.8494  10.0075  10.0359
    10.0743  10.1066  10.1367  10.2034  10.2329  10.2622  10.2759  10.3328
    10.3473  10.3576  10.3819  10.4037  10.4159  10.4966  10.5663  10.6048
    10.6573  10.7155  10.7204  10.7603  10.7932  10.8359  10.9313  11.0531
    11.0605  11.2635  11.3593  11.3666  11.4244  11.4862  11.6032  11.6202
    11.6337  11.6457  11.6547  11.6881  11.7050  11.7262  11.7815  11.8382
    11.8707  11.9422  11.9862  11.9882  12.1086  12.1614  12.2092  12.2298
    12.2439  12.2532  12.2629  12.2827  12.2867  12.3037  12.3795  12.4006
    12.4085  12.4394  12.4523  12.4611  12.4755  12.4794  12.4857  12.5047
    12.5497  12.5644  12.5999  12.6100  12.6203  12.6761  12.7607  12.7878
    12.8181  12.8555  12.8682  12.8733  12.8856  12.9110  12.9260  12.9498
    13.0103  13.0236  13.0417  13.0561  13.0719  13.1177  13.1314  13.1575
    13.2017  13.2088  13.2099  13.3012  13.3132  13.3246  13.3730  13.3904
    13.4033  13.4117  13.4222  13.4240  13.4911  13.5571  13.6157  13.6683
    13.7187  14.5635  14.5916  14.5953  14.6146  14.6577  14.6591  14.6679
    14.6752  14.6800  14.6895  14.6929  14.6974  14.7011  14.7036  14.7271
    14.7395  14.7508  14.7671  14.7730  14.7850  14.7897  14.8005  14.8026
    14.8075  14.8114  14.8319  14.8358  14.8380  14.8464  14.8510  14.8697
    14.9086  14.9222  14.9423  14.9482  14.9504  14.9582  14.9610  14.9641
    14.9962  14.9989  15.0572  15.0869  15.1140  15.1240  15.1487  15.1574
    15.1644  15.1713  15.1822  15.1864  15.1974  15.2010  15.2093  15.2157
    15.2318  15.2373  15.2519  15.2653  15.2717  15.2837  15.3139  15.3339
    15.3414  15.3502  15.3587  15.4107  15.4142  15.4401  15.4685  15.4728
    15.4997  15.5475  15.5713  15.5729  15.5939  15.6608  15.6656  15.7194
    15.8143  15.8706  15.8729  15.9064  15.9127  15.9437  15.9657  15.9851
    16.0005  16.0064  16.0114  16.0211  16.0236  16.0303  16.0354  16.0535
    16.0741  16.0782  16.0868  16.1064  16.1119  16.1180  16.1251  16.1649
    16.1894  16.2006  16.2081  16.2352  16.2504  16.2667  16.3163  16.3210
    16.3271  16.3332  16.3743  16.3813  16.3850  16.3952  16.3979  16.4379
    16.4490  16.4883  16.4953  16.5173  16.5227  16.5564  16.5774  16.5983
    16.6039  16.6075  16.6124  16.6215  16.6375  16.6433  16.6504  16.6728
    16.6979  16.7086  16.7408  16.7488  16.7501  16.7584  16.7733  16.7919
    16.7969  16.8000  16.8048  16.8111  16.8315  16.8564  16.8879  16.9234
    16.9249  16.9392  16.9442  16.9543  16.9647  16.9768  16.9820  16.9862
    16.9930  16.9962  17.0051  17.0131  17.0171  17.0223  17.0259  17.0324
    17.0348  17.0399  17.0505  17.0573  17.0727  17.1001  17.1279  17.1462
    17.1501  17.1599  17.1810  17.1966  17.2059  17.2102  17.2196  17.2240
    17.2416  17.2467  17.2511  17.2692  17.2772  17.2867  17.2956  17.3027
    17.3083  17.3348  17.3393  17.3756  17.3876  17.3923  17.3951  17.3992
    17.4319  17.4562  17.4743  17.4856  17.4942  17.4981  17.4990  17.5003
    17.5040  17.5428  17.5747  17.5845  17.6395  17.7205  17.7255  17.7346
    17.8534  17.8683  17.8819  17.8859  17.8882  17.8954  17.9099  17.9179
    17.9337  17.9394  17.9455  17.9493  17.9522  17.9580  17.9639  17.9712
    17.9776  18.0021  18.0063  18.0222  18.0283  18.0360  18.0403  18.0460
    18.0548  18.0592  18.0650  18.0813  18.0830  18.0891  18.0932  18.0997
    18.1137  18.1166  18.1307  18.1377  18.1392  18.1424  18.1529  18.1921
    18.2039  18.2087  18.2117  18.2228  18.2255  18.2294  18.2315  18.2393
    18.2462  18.2523  18.2552  18.2606  18.2683  18.2733  18.2931  18.2994
    18.3156  18.3226  18.3293  18.3357  18.3402  18.3661  18.3699  18.3735
    18.3756  18.3841  18.3892  18.3990  18.4017  18.4183  18.4320  18.4509
    18.5198  18.6408  18.7055  18.8159  18.8225  18.8436  18.8595  18.9495
    18.9688  18.9762  19.0542  19.1719  19.1895  19.2070  19.2245  19.2524
    19.2542  19.2628  19.3177  19.3340  19.3422  19.3779  19.4487  19.4791
    19.4913  19.5103  19.5462  19.5636  19.5732  19.6139  19.6199  19.6330
    19.6538  19.6672  19.6893  19.7311  19.7489  19.9106  19.9481  19.9582
    19.9706  20.0208  20.0657  20.0901  20.1002  20.1110  20.1489  20.1636
    20.1658  20.2136  20.2799  20.2876  20.3018  20.3074  20.3197  20.3343
    20.3545  20.3660  20.3881  20.4352  20.5226  20.5337  20.5432  20.5492
    20.6029  20.6292  20.6458  20.6812  20.6935  20.7920  20.9389  20.9764
    21.0912  21.3450  21.4891  21.5673  21.6331  21.8330  21.9662  22.0120

     occupation numbers 
     1.0000   1.0000   1.0000   1.0000   1.0000   1.0000   1.0000   1.0000
     1.0000   1.0000   1.0000   1.0000   1.0000   1.0000   1.0000   1.0000
     1.0000   1.0000   1.0000   1.0000   1.0000   1.0000   1.0000   1.0000
     1.0000   1.0000   1.0000   1.0000   1.0000   1.0000   1.0000   1.0000
     1.0000   1.0000   1.0000   1.0000   1.0000   1.0000   1.0000   1.0000
     1.0000   1.0000   1.0000   1.0000   1.0000   1.0000   1.0000   1.0000
     1.0000   1.0000   1.0000   1.0000   1.0000   1.0000   1.0000   1.0000
     1.0000   1.0000   1.0000   1.0000   1.0000   1.0000   1.0000   1.0000
     1.0000   1.0000   1.0000   1.0000   1.0000   1.0000   1.0000   1.0000
     1.0000   1.0000   1.0000   1.0000   1.0000   1.0000   1.0000   1.0000
     1.0000   1.0000   1.0000   1.0000   1.0000   1.0000   1.0000   1.0000
     1.0000   1.0000   1.0000   1.0000   1.0000   1.0000   1.0000   1.0000
     1.0000   1.0000   1.0000   1.0000   1.0000   1.0000   1.0000   1.0000
     1.0000   1.0000   1.0000   1.0000   1.0000   1.0000   1.0000   1.0000
     1.0000   1.0000   1.0000   1.0000   1.0000   1.0000   1.0000   1.0000
     1.0000   1.0000   1.0000   1.0000   1.0000   1.0000   1.0000   1.0000
     1.0000   1.0000   1.0000   1.0000   1.0000   1.0000   1.0000   1.0000
     1.0000   1.0000   1.0000   1.0000   1.0000   1.0000   1.0000   1.0000
     1.0000   1.0000   1.0000   1.0000   1.0000   1.0000   1.0000   1.0000
     1.0000   1.0000   1.0000   1.0000   1.0000   1.0000   1.0000   1.0000
     1.0000   1.0000   1.0000   1.0000   1.0000   1.0000   1.0000   1.0000
     1.0000   1.0000   1.0000   1.0000   1.0000   1.0000   1.0000   1.0000
     1.0000   1.0000   1.0000   1.0000   1.0000   1.0000   1.0000   1.0000
     1.0000   1.0000   1.0000   1.0000   1.0000   1.0000   1.0000   1.0000
     1.0000   1.0000   1.0000   1.0000   1.0000   1.0000   1.0000   1.0000
     1.0000   1.0000   1.0000   1.0000   1.0000   1.0000   1.0000   1.0000
     1.0000   1.0000   1.0000   1.0000   1.0000   1.0000   1.0000   1.0000
     1.0000   1.0000   1.0000   1.0000   1.0000   1.0000   1.0000   1.0000
     1.0000   1.0000   1.0000   1.0000   1.0000   1.0000   1.0000   1.0000
     1.0000   1.0000   1.0000   1.0000   1.0000   1.0000   1.0000   1.0000
     1.0000   1.0000   1.0000   1.0000   1.0000   1.0000   1.0000   1.0000
     1.0000   1.0000   1.0000   1.0000   1.0000   1.0000   1.0000   1.0000
     1.0000   1.0000   1.0000   1.0000   1.0000   1.0000   1.0000   1.0000
     1.0000   1.0000   1.0000   1.0000   1.0000   1.0000   1.0000   1.0000
     1.0000   1.0000   1.0000   1.0000   1.0000   1.0000   1.0000   1.0000
     1.0000   1.0000   1.0000   1.0000   1.0000   1.0000   1.0000   1.0000
     1.0000   1.0000   1.0000   1.0000   1.0000   1.0000   1.0000   1.0000
     1.0000   1.0000   1.0000   1.0000   1.0000   1.0000   1.0000   1.0000
     1.0000   1.0000   1.0000   1.0000   1.0000   1.0000   1.0000   1.0000
     1.0000   1.0000   1.0000   1.0000   1.0000   1.0000   1.0000   1.0000
     1.0000   1.0000   1.0000   1.0000   1.0000   1.0000   1.0000   1.0000
     1.0000   1.0000   1.0000   1.0000   1.0000   1.0000   1.0000   1.0000
     1.0000   1.0000   1.0000   1.0000   1.0000   1.0000   1.0000   1.0000
     1.0000   1.0000   1.0000   1.0000   1.0000   1.0000   1.0000   1.0000
     1.0000   1.0000   1.0000   1.0000   1.0000   1.0000   1.0000   1.0000
     1.0000   1.0000   1.0000   1.0000   1.0000   1.0000   1.0000   1.0000
     1.0000   1.0000   1.0000   1.0000   1.0000   1.0000   1.0000   1.0000
     1.0000   1.0000   1.0000   1.0000   1.0000   1.0000   1.0000   1.0000
     1.0000   1.0000   1.0000   1.0000   1.0000   1.0000   1.0000   1.0000
     1.0000   1.0000   1.0000   1.0000   1.0000   1.0000   1.0000   1.0000
     1.0000   1.0000   1.0000   1.0000   1.0000   1.0000   1.0000   1.0000
     1.0000   1.0000   1.0000   1.0000   1.0000   1.0000   1.0000   1.0000
     1.0000   1.0000   1.0000   1.0000   1.0000   1.0000   1.0000   1.0000
     1.0000   1.0000   1.0000   1.0000   1.0000   1.0000   1.0000   1.0000
     1.0000   1.0000   1.0000   1.0000   1.0000   1.0000   1.0000   1.0000
     1.0000   1.0000   1.0000   1.0000   1.0000   1.0000   1.0000   1.0000
     1.0000   1.0000   1.0000   1.0000   1.0000   1.0000   1.0000   1.0000
     1.0000   1.0000   1.0000   1.0000   1.0000   1.0000   1.0000   1.0000
     1.0000   1.0000   1.0000   1.0000   1.0000   1.0000   1.0000   1.0000
     1.0000   1.0000   1.0000   1.0000   1.0000   1.0000   1.0000   1.0000
     1.0000   1.0000   1.0000   1.0000   1.0000   1.0000   1.0000   1.0000
     1.0000   1.0000   1.0000   1.0000   1.0000   1.0000   1.0000   1.0000
     1.0000   1.0000   1.0000   1.0000   1.0000   1.0000   1.0000   1.0000
     1.0000   1.0000   1.0000   1.0000   1.0000   1.0000   1.0000   1.0000
     1.0000   1.0000   1.0000   1.0000   1.0000   1.0000   1.0000   1.0000
     1.0000   1.0000   1.0000   1.0000   1.0000   1.0000   1.0000   1.0000
     1.0000   1.0000   1.0000   1.0000   1.0000   1.0000   1.0000   1.0000
     1.0000   1.0000   1.0000   1.0000   1.0000   1.0000   1.0000   1.0000
     1.0000   1.0000   1.0000   1.0000   1.0000   1.0000   1.0000   1.0000
     1.0000   0.9999   0.9999   0.9998   0.9998   0.9997   0.9995   0.9993
     0.9992   0.9992   0.9991   0.9989   0.9986   0.9984   0.9982   0.9975
     0.9962   0.9956   0.9929   0.9920   0.9918   0.9908   0.9887   0.9855
     0.9845   0.9839   0.9829   0.9814   0.9761   0.9678   0.9541   0.9333
     0.9323   0.9220   0.9181   0.9099   0.9009   0.8894   0.8842   0.8799
     0.8726   0.8692   0.8591   0.8496   0.8447   0.8381   0.8335   0.8250
     0.8218   0.8147   0.7996   0.7895   0.7658   0.7198   0.6693   0.6342
     0.6266   0.6070   0.5644   0.5322   0.5129   0.5041   0.4845   0.4755
     0.4393   0.4287   0.4198   0.3835   0.3677   0.3494   0.3324   0.3190
     0.3087   0.2619   0.2544   0.1978   0.1810   0.1747   0.1709   0.1656
     0.1267   0.1023   0.0866   0.0777   0.0714   0.0687   0.0680   0.0671
     0.0647   0.0429   0.0298   0.0265   0.0132   0.0041   0.0038   0.0033
     0.0004   0.0003   0.0003   0.0002   0.0002   0.0002   0.0001   0.0001
     0.0001   0.0001   0.0001   0.0001   0.0001   0.0001   0.0000   0.0000
     0.0000   0.0000   0.0000   0.0000   0.0000   0.0000   0.0000   0.0000
     0.0000   0.0000   0.0000   0.0000   0.0000   0.0000   0.0000   0.0000
     0.0000   0.0000   0.0000   0.0000   0.0000   0.0000   0.0000   0.0000
     0.0000   0.0000   0.0000   0.0000   0.0000   0.0000   0.0000   0.0000
     0.0000   0.0000   0.0000   0.0000   0.0000   0.0000   0.0000   0.0000
     0.0000   0.0000   0.0000   0.0000   0.0000   0.0000   0.0000   0.0000
     0.0000   0.0000   0.0000   0.0000   0.0000   0.0000   0.0000   0.0000
     0.0000   0.0000   0.0000   0.0000   0.0000   0.0000   0.0000   0.0000
     0.0000   0.0000   0.0000   0.0000   0.0000   0.0000   0.0000   0.0000
     0.0000   0.0000   0.0000   0.0000   0.0000   0.0000   0.0000   0.0000
     0.0000   0.0000   0.0000   0.0000   0.0000   0.0000   0.0000   0.0000
     0.0000   0.0000   0.0000   0.0000   0.0000   0.0000   0.0000   0.0000
     0.0000   0.0000   0.0000   0.0000   0.0000   0.0000   0.0000   0.0000
     0.0000   0.0000   0.0000   0.0000   0.0000   0.0000   0.0000   0.0000
     0.0000   0.0000   0.0000   0.0000   0.0000   0.0000   0.0000   0.0000
     0.0000   0.0000   0.0000   0.0000   0.0000   0.0000   0.0000   0.0000
     0.0000   0.0000   0.0000   0.0000   0.0000   0.0000   0.0000   0.0000

          k = 0.2500 0.4330-0.2850 (100562 PWs)   bands (ev):

   -69.1493 -69.1395 -69.0695 -69.0554 -69.0343 -69.0339 -69.0324 -69.0318
   -69.0189 -69.0186 -69.0185 -69.0181 -69.0164 -69.0160 -69.0131 -69.0127
   -69.0127 -69.0118 -69.0091 -69.0071 -69.0070 -69.0068 -69.0067 -69.0067
   -69.0065 -69.0064 -69.0062 -69.0047 -69.0044 -69.0043 -69.0041 -69.0014
   -68.9951 -68.9951 -68.9774 -68.9771 -68.6456 -68.6421 -68.6413 -68.6397
   -68.6393 -68.6365 -68.6365 -68.6360 -68.6360 -68.6345 -68.6344 -68.6341
   -68.6341 -68.6333 -68.6332 -68.6327 -68.6326 -68.6325 -68.6325 -68.6320
   -68.6319 -68.6319 -68.6317 -68.6314 -68.6314 -68.6311 -68.6311 -68.6308
   -68.6307 -68.6302 -68.6292 -68.6292 -68.6287 -68.6287 -68.6236 -68.6236
   -35.4825 -35.4063 -35.3481 -35.3041 -35.3036 -35.3034 -35.3029 -35.3002
   -35.2991 -35.2958 -35.2957 -35.2955 -35.2953 -35.2886 -35.2885 -35.2548
   -35.2402 -35.2370 -35.2361 -35.2359 -35.2357 -35.2353 -35.2350 -35.2311
   -35.2288 -35.2285 -35.2279 -35.2278 -35.2272 -35.2269 -35.2260 -35.2254
   -35.2252 -35.2247 -35.2196 -35.2191 -35.2181 -35.2174 -35.2166 -35.1875
   -35.1827 -35.1815 -35.1790 -35.1776 -35.1749 -35.1743 -35.1730 -35.1722
   -35.1718 -35.1715 -35.1712 -35.1709 -35.1706 -35.1705 -35.1702 -35.1695
   -35.1691 -35.1647 -35.1638 -35.1630 -35.1609 -35.1598 -35.1593 -35.1584
   -35.1578 -35.1574 -35.1560 -35.1557 -35.1542 -35.1538 -35.1374 -35.1358
   -35.1074 -35.1013 -35.0871 -35.0697 -35.0506 -35.0452 -35.0444 -35.0427
   -35.0379 -35.0360 -35.0325 -35.0305 -35.0300 -35.0273 -35.0251 -35.0244
   -35.0210 -35.0206 -35.0181 -35.0176 -35.0169 -35.0156 -35.0136 -35.0133
   -35.0127 -35.0125 -35.0117 -35.0112 -35.0086 -35.0067 -35.0057 -35.0022
   -34.9988 -34.9983 -34.9932 -34.9862 -34.8412 -34.8383 -34.8332 -34.8325
   -34.8312 -34.8307 -34.8273 -34.8271 -34.8261 -34.8258 -34.8257 -34.8249
   -34.8235 -34.8233 -34.8226 -34.8224 -34.8221 -34.8219 -34.8216 -34.8213
   -34.8210 -34.8205 -34.8201 -34.8199 -34.8199 -34.8191 -34.8185 -34.8184
   -34.8180 -34.8170 -34.8154 -34.8151 -34.8144 -34.8121 -34.8101 -34.8074
   -34.7667 -34.7664 -34.7657 -34.7646 -34.7636 -34.7633 -34.7618 -34.7615
   -34.7612 -34.7609 -34.7598 -34.7594 -34.7587 -34.7585 -34.7580 -34.7579
   -34.7572 -34.7568 -34.7566 -34.7563 -34.7562 -34.7557 -34.7554 -34.7552
   -34.7550 -34.7545 -34.7544 -34.7542 -34.7539 -34.7523 -34.7516 -34.7483
   -34.7474 -34.7466 -34.7405 -34.7383 -34.7079 -34.7008 -34.6987 -34.6976
   -34.6967 -34.6959 -34.6956 -34.6942 -34.6930 -34.6926 -34.6912 -34.6890
   -34.6881 -34.6868 -34.6841 -34.6829 -34.6829 -34.6807 -34.6800 -34.6794
   -34.6780 -34.6779 -34.6769 -34.6763 -34.6754 -34.6743 -34.6735 -34.6733
   -34.6728 -34.6727 -34.6722 -34.6717 -34.6713 -34.6706 -34.6634 -34.6630
     3.5527   3.8147   3.8657   4.0955   4.3275   4.3735   4.5113   4.6520
     4.9009   4.9559   4.9898   5.0624   5.0850   5.1091   5.1303   5.1597
     5.3194   5.3358   5.3894   5.4065   5.4101   5.4135   5.4722   5.5576
     5.5926   5.6121   5.6320   5.6363   5.6435   5.6877   5.6932   5.7562
     5.8815   6.0200   6.0242   6.1711   8.7272   9.8580  10.0041  10.0344
    10.0749  10.1012  10.1355  10.2038  10.2469  10.2639  10.2815  10.3383
    10.3453  10.3493  10.3761  10.3977  10.4190  10.4953  10.5373  10.6068
    10.6315  10.7144  10.7242  10.7918  10.7963  10.8240  10.9425  11.0345
    11.0598  11.2770  11.3471  11.3654  11.4023  11.5030  11.6121  11.6141
    11.6363  11.6407  11.6490  11.6875  11.7172  11.7280  11.8231  11.8572
    11.8825  11.9396  11.9864  11.9924  12.1071  12.1278  12.1909  12.2295
    12.2487  12.2534  12.2610  12.2765  12.2848  12.2964  12.3919  12.4038
    12.4048  12.4376  12.4629  12.4637  12.4781  12.4814  12.4859  12.5102
    12.5324  12.5619  12.5930  12.6099  12.6214  12.6698  12.7690  12.7846
    12.8442  12.8457  12.8698  12.8738  12.8808  12.9180  12.9211  12.9517
    13.0042  13.0178  13.0578  13.0601  13.0725  13.1215  13.1256  13.1578
    13.1914  13.2063  13.2119  13.3021  13.3095  13.3255  13.3663  13.3928
    13.4021  13.4076  13.4182  13.4272  13.4895  13.5668  13.6384  13.6626
    13.6920  14.5630  14.5903  14.5986  14.6245  14.6566  14.6571  14.6715
    14.6766  14.6843  14.6864  14.6903  14.6962  14.6998  14.7012  14.7133
    14.7339  14.7566  14.7611  14.7743  14.7878  14.7920  14.8023  14.8032
    14.8086  14.8115  14.8321  14.8391  14.8414  14.8482  14.8542  14.8680
    14.9191  14.9265  14.9453  14.9462  14.9485  14.9598  14.9613  14.9629
    14.9881  15.0010  15.0731  15.0941  15.1094  15.1243  15.1400  15.1499
    15.1595  15.1758  15.1846  15.1869  15.1942  15.2022  15.2030  15.2142
    15.2259  15.2338  15.2423  15.2632  15.2750  15.2814  15.3077  15.3404
    15.3501  15.3530  15.3590  15.4108  15.4128  15.4431  15.4701  15.4716
    15.5045  15.5520  15.5697  15.5726  15.5950  15.6596  15.6635  15.7251
    15.8224  15.8655  15.8724  15.9023  15.9088  15.9400  15.9679  15.9821
    15.9935  16.0045  16.0094  16.0216  16.0276  16.0327  16.0456  16.0649
    16.0705  16.0791  16.0883  16.1061  16.1130  16.1167  16.1211  16.1625
    16.1949  16.1955  16.2076  16.2233  16.2464  16.2748  16.3136  16.3232
    16.3248  16.3304  16.3772  16.3795  16.3897  16.3922  16.3951  16.4356
    16.4483  16.4868  16.4915  16.5166  16.5182  16.5697  16.5846  16.5948
    16.5990  16.6043  16.6109  16.6188  16.6445  16.6465  16.6586  16.6620
    16.6982  16.7039  16.7375  16.7426  16.7535  16.7618  16.7721  16.7870
    16.7994  16.8011  16.8110  16.8197  16.8285  16.8559  16.8887  16.9218
    16.9233  16.9330  16.9448  16.9517  16.9715  16.9727  16.9825  16.9923
    16.9934  17.0025  17.0072  17.0135  17.0189  17.0210  17.0280  17.0292
    17.0331  17.0438  17.0450  17.0591  17.0776  17.1059  17.1334  17.1410
    17.1567  17.1572  17.1790  17.2029  17.2065  17.2131  17.2181  17.2234
    17.2370  17.2457  17.2491  17.2642  17.2797  17.2815  17.2970  17.3017
    17.3090  17.3310  17.3406  17.3736  17.3864  17.3932  17.3949  17.3996
    17.4361  17.4523  17.4693  17.4860  17.4929  17.4976  17.4999  17.5014
    17.5024  17.5440  17.5736  17.5863  17.6376  17.7216  17.7271  17.7317
    17.8610  17.8740  17.8744  17.8895  17.8897  17.8928  17.9092  17.9174
    17.9348  17.9358  17.9377  17.9483  17.9506  17.9599  17.9645  17.9721
    17.9774  18.0014  18.0113  18.0231  18.0294  18.0389  18.0393  18.0475
    18.0518  18.0607  18.0614  18.0791  18.0798  18.0878  18.0963  18.1012
    18.1123  18.1178  18.1298  18.1397  18.1417  18.1445  18.1574  18.1927
    18.2030  18.2056  18.2120  18.2238  18.2249  18.2276  18.2327  18.2388
    18.2436  18.2513  18.2556  18.2605  18.2694  18.2749  18.2975  18.2976
    18.3189  18.3218  18.3334  18.3351  18.3424  18.3644  18.3689  18.3716
    18.3770  18.3819  18.3890  18.3912  18.4010  18.4159  18.4321  18.4528
    18.5175  18.6405  18.7060  18.8170  18.8206  18.8411  18.8588  18.9495
    18.9683  18.9760  19.0491  19.1811  19.1890  19.2078  19.2250  19.2463
    19.2565  19.2626  19.3200  19.3381  19.3399  19.3830  19.4544  19.4655
    19.4905  19.5282  19.5437  19.5656  19.5691  19.6128  19.6152  19.6321
    19.6506  19.6672  19.6846  19.7344  19.7418  19.9400  19.9499  19.9501
    19.9669  20.0291  20.0813  20.0877  20.0994  20.1119  20.1223  20.1661
    20.1684  20.2104  20.2678  20.2877  20.2957  20.3080  20.3197  20.3310
    20.3608  20.3617  20.3801  20.4382  20.4916  20.5387  20.5413  20.5462
    20.6029  20.6269  20.6644  20.6776  20.6921  20.7973  20.9511  20.9887
    21.0867  21.3919  21.4948  21.5790  21.6174  21.8352  21.9823  21.9841

     occupation numbers 
     1.0000   1.0000   1.0000   1.0000   1.0000   1.0000   1.0000   1.0000
     1.0000   1.0000   1.0000   1.0000   1.0000   1.0000   1.0000   1.0000
     1.0000   1.0000   1.0000   1.0000   1.0000   1.0000   1.0000   1.0000
     1.0000   1.0000   1.0000   1.0000   1.0000   1.0000   1.0000   1.0000
     1.0000   1.0000   1.0000   1.0000   1.0000   1.0000   1.0000   1.0000
     1.0000   1.0000   1.0000   1.0000   1.0000   1.0000   1.0000   1.0000
     1.0000   1.0000   1.0000   1.0000   1.0000   1.0000   1.0000   1.0000
     1.0000   1.0000   1.0000   1.0000   1.0000   1.0000   1.0000   1.0000
     1.0000   1.0000   1.0000   1.0000   1.0000   1.0000   1.0000   1.0000
     1.0000   1.0000   1.0000   1.0000   1.0000   1.0000   1.0000   1.0000
     1.0000   1.0000   1.0000   1.0000   1.0000   1.0000   1.0000   1.0000
     1.0000   1.0000   1.0000   1.0000   1.0000   1.0000   1.0000   1.0000
     1.0000   1.0000   1.0000   1.0000   1.0000   1.0000   1.0000   1.0000
     1.0000   1.0000   1.0000   1.0000   1.0000   1.0000   1.0000   1.0000
     1.0000   1.0000   1.0000   1.0000   1.0000   1.0000   1.0000   1.0000
     1.0000   1.0000   1.0000   1.0000   1.0000   1.0000   1.0000   1.0000
     1.0000   1.0000   1.0000   1.0000   1.0000   1.0000   1.0000   1.0000
     1.0000   1.0000   1.0000   1.0000   1.0000   1.0000   1.0000   1.0000
     1.0000   1.0000   1.0000   1.0000   1.0000   1.0000   1.0000   1.0000
     1.0000   1.0000   1.0000   1.0000   1.0000   1.0000   1.0000   1.0000
     1.0000   1.0000   1.0000   1.0000   1.0000   1.0000   1.0000   1.0000
     1.0000   1.0000   1.0000   1.0000   1.0000   1.0000   1.0000   1.0000
     1.0000   1.0000   1.0000   1.0000   1.0000   1.0000   1.0000   1.0000
     1.0000   1.0000   1.0000   1.0000   1.0000   1.0000   1.0000   1.0000
     1.0000   1.0000   1.0000   1.0000   1.0000   1.0000   1.0000   1.0000
     1.0000   1.0000   1.0000   1.0000   1.0000   1.0000   1.0000   1.0000
     1.0000   1.0000   1.0000   1.0000   1.0000   1.0000   1.0000   1.0000
     1.0000   1.0000   1.0000   1.0000   1.0000   1.0000   1.0000   1.0000
     1.0000   1.0000   1.0000   1.0000   1.0000   1.0000   1.0000   1.0000
     1.0000   1.0000   1.0000   1.0000   1.0000   1.0000   1.0000   1.0000
     1.0000   1.0000   1.0000   1.0000   1.0000   1.0000   1.0000   1.0000
     1.0000   1.0000   1.0000   1.0000   1.0000   1.0000   1.0000   1.0000
     1.0000   1.0000   1.0000   1.0000   1.0000   1.0000   1.0000   1.0000
     1.0000   1.0000   1.0000   1.0000   1.0000   1.0000   1.0000   1.0000
     1.0000   1.0000   1.0000   1.0000   1.0000   1.0000   1.0000   1.0000
     1.0000   1.0000   1.0000   1.0000   1.0000   1.0000   1.0000   1.0000
     1.0000   1.0000   1.0000   1.0000   1.0000   1.0000   1.0000   1.0000
     1.0000   1.0000   1.0000   1.0000   1.0000   1.0000   1.0000   1.0000
     1.0000   1.0000   1.0000   1.0000   1.0000   1.0000   1.0000   1.0000
     1.0000   1.0000   1.0000   1.0000   1.0000   1.0000   1.0000   1.0000
     1.0000   1.0000   1.0000   1.0000   1.0000   1.0000   1.0000   1.0000
     1.0000   1.0000   1.0000   1.0000   1.0000   1.0000   1.0000   1.0000
     1.0000   1.0000   1.0000   1.0000   1.0000   1.0000   1.0000   1.0000
     1.0000   1.0000   1.0000   1.0000   1.0000   1.0000   1.0000   1.0000
     1.0000   1.0000   1.0000   1.0000   1.0000   1.0000   1.0000   1.0000
     1.0000   1.0000   1.0000   1.0000   1.0000   1.0000   1.0000   1.0000
     1.0000   1.0000   1.0000   1.0000   1.0000   1.0000   1.0000   1.0000
     1.0000   1.0000   1.0000   1.0000   1.0000   1.0000   1.0000   1.0000
     1.0000   1.0000   1.0000   1.0000   1.0000   1.0000   1.0000   1.0000
     1.0000   1.0000   1.0000   1.0000   1.0000   1.0000   1.0000   1.0000
     1.0000   1.0000   1.0000   1.0000   1.0000   1.0000   1.0000   1.0000
     1.0000   1.0000   1.0000   1.0000   1.0000   1.0000   1.0000   1.0000
     1.0000   1.0000   1.0000   1.0000   1.0000   1.0000   1.0000   1.0000
     1.0000   1.0000   1.0000   1.0000   1.0000   1.0000   1.0000   1.0000
     1.0000   1.0000   1.0000   1.0000   1.0000   1.0000   1.0000   1.0000
     1.0000   1.0000   1.0000   1.0000   1.0000   1.0000   1.0000   1.0000
     1.0000   1.0000   1.0000   1.0000   1.0000   1.0000   1.0000   1.0000
     1.0000   1.0000   1.0000   1.0000   1.0000   1.0000   1.0000   1.0000
     1.0000   1.0000   1.0000   1.0000   1.0000   1.0000   1.0000   1.0000
     1.0000   1.0000   1.0000   1.0000   1.0000   1.0000   1.0000   1.0000
     1.0000   1.0000   1.0000   1.0000   1.0000   1.0000   1.0000   1.0000
     1.0000   1.0000   1.0000   1.0000   1.0000   1.0000   1.0000   1.0000
     1.0000   1.0000   1.0000   1.0000   1.0000   1.0000   1.0000   1.0000
     1.0000   1.0000   1.0000   1.0000   1.0000   1.0000   1.0000   1.0000
     1.0000   1.0000   1.0000   1.0000   1.0000   1.0000   1.0000   1.0000
     1.0000   1.0000   1.0000   1.0000   1.0000   1.0000   1.0000   1.0000
     1.0000   1.0000   1.0000   1.0000   1.0000   1.0000   1.0000   1.0000
     1.0000   1.0000   1.0000   1.0000   1.0000   1.0000   1.0000   1.0000
     1.0000   1.0000   1.0000   1.0000   1.0000   1.0000   1.0000   1.0000
     1.0000   0.9999   0.9999   0.9998   0.9998   0.9996   0.9994   0.9993
     0.9993   0.9992   0.9991   0.9990   0.9984   0.9984   0.9980   0.9979
     0.9962   0.9959   0.9932   0.9927   0.9914   0.9904   0.9889   0.9864
     0.9840   0.9837   0.9815   0.9793   0.9769   0.9680   0.9536   0.9343
     0.9334   0.9266   0.9177   0.9121   0.8945   0.8933   0.8837   0.8734
     0.8722   0.8621   0.8566   0.8491   0.8424   0.8398   0.8307   0.8292
     0.8240   0.8092   0.8076   0.7868   0.7578   0.7096   0.6588   0.6442
     0.6135   0.6125   0.5684   0.5193   0.5118   0.4980   0.4877   0.4766
     0.4486   0.4308   0.4238   0.3935   0.3628   0.3593   0.3297   0.3209
     0.3074   0.2685   0.2523   0.2008   0.1826   0.1734   0.1711   0.1651
     0.1222   0.1060   0.0907   0.0774   0.0723   0.0690   0.0674   0.0664
     0.0657   0.0423   0.0302   0.0259   0.0135   0.0041   0.0037   0.0035
     0.0004   0.0003   0.0003   0.0002   0.0002   0.0002   0.0001   0.0001
     0.0001   0.0001   0.0001   0.0001   0.0001   0.0001   0.0000   0.0000
     0.0000   0.0000   0.0000   0.0000   0.0000   0.0000   0.0000   0.0000
     0.0000   0.0000   0.0000   0.0000   0.0000   0.0000   0.0000   0.0000
     0.0000   0.0000   0.0000   0.0000   0.0000   0.0000   0.0000   0.0000
     0.0000   0.0000   0.0000   0.0000   0.0000   0.0000   0.0000   0.0000
     0.0000   0.0000   0.0000   0.0000   0.0000   0.0000   0.0000   0.0000
     0.0000   0.0000   0.0000   0.0000   0.0000   0.0000   0.0000   0.0000
     0.0000   0.0000   0.0000   0.0000   0.0000   0.0000   0.0000   0.0000
     0.0000   0.0000   0.0000   0.0000   0.0000   0.0000   0.0000   0.0000
     0.0000   0.0000   0.0000   0.0000   0.0000   0.0000   0.0000   0.0000
     0.0000   0.0000   0.0000   0.0000   0.0000   0.0000   0.0000   0.0000
     0.0000   0.0000   0.0000   0.0000   0.0000   0.0000   0.0000   0.0000
     0.0000   0.0000   0.0000   0.0000   0.0000   0.0000   0.0000   0.0000
     0.0000   0.0000   0.0000   0.0000   0.0000   0.0000   0.0000   0.0000
     0.0000   0.0000   0.0000   0.0000   0.0000   0.0000   0.0000   0.0000
     0.0000   0.0000   0.0000   0.0000   0.0000   0.0000   0.0000   0.0000
     0.0000   0.0000   0.0000   0.0000   0.0000   0.0000   0.0000   0.0000
     0.0000   0.0000   0.0000   0.0000   0.0000   0.0000   0.0000   0.0000

          k =-0.2500 0.4330 0.5700 (100580 PWs)   bands (ev):

   -69.1493 -69.1395 -69.0695 -69.0554 -69.0343 -69.0339 -69.0324 -69.0318
   -69.0189 -69.0185 -69.0185 -69.0181 -69.0164 -69.0160 -69.0131 -69.0127
   -69.0127 -69.0118 -69.0091 -69.0071 -69.0070 -69.0068 -69.0067 -69.0067
   -69.0065 -69.0064 -69.0062 -69.0047 -69.0044 -69.0043 -69.0041 -69.0014
   -68.9951 -68.9951 -68.9774 -68.9771 -68.6456 -68.6421 -68.6413 -68.6397
   -68.6393 -68.6365 -68.6365 -68.6360 -68.6360 -68.6345 -68.6344 -68.6341
   -68.6341 -68.6333 -68.6331 -68.6328 -68.6326 -68.6325 -68.6324 -68.6320
   -68.6319 -68.6319 -68.6316 -68.6314 -68.6314 -68.6311 -68.6311 -68.6307
   -68.6307 -68.6302 -68.6292 -68.6292 -68.6287 -68.6287 -68.6236 -68.6236
   -35.4825 -35.4063 -35.3481 -35.3038 -35.3037 -35.3035 -35.3029 -35.3002
   -35.2992 -35.2962 -35.2956 -35.2952 -35.2951 -35.2886 -35.2886 -35.2547
   -35.2402 -35.2375 -35.2366 -35.2362 -35.2355 -35.2350 -35.2347 -35.2306
   -35.2298 -35.2285 -35.2279 -35.2277 -35.2269 -35.2265 -35.2256 -35.2253
   -35.2248 -35.2246 -35.2198 -35.2198 -35.2177 -35.2177 -35.2165 -35.1874
   -35.1822 -35.1814 -35.1793 -35.1775 -35.1767 -35.1737 -35.1731 -35.1721
   -35.1718 -35.1714 -35.1712 -35.1710 -35.1709 -35.1705 -35.1698 -35.1695
   -35.1679 -35.1648 -35.1641 -35.1631 -35.1609 -35.1596 -35.1594 -35.1584
   -35.1576 -35.1575 -35.1564 -35.1562 -35.1540 -35.1534 -35.1375 -35.1358
   -35.1074 -35.1013 -35.0872 -35.0700 -35.0504 -35.0469 -35.0441 -35.0426
   -35.0388 -35.0353 -35.0317 -35.0307 -35.0285 -35.0266 -35.0265 -35.0253
   -35.0211 -35.0189 -35.0181 -35.0177 -35.0170 -35.0159 -35.0137 -35.0123
   -35.0114 -35.0114 -35.0108 -35.0105 -35.0083 -35.0076 -35.0063 -35.0041
   -34.9996 -34.9991 -34.9929 -34.9866 -34.8419 -34.8377 -34.8336 -34.8334
   -34.8322 -34.8311 -34.8274 -34.8265 -34.8260 -34.8257 -34.8252 -34.8250
   -34.8241 -34.8231 -34.8228 -34.8224 -34.8221 -34.8215 -34.8212 -34.8208
   -34.8207 -34.8200 -34.8200 -34.8196 -34.8194 -34.8192 -34.8187 -34.8177
   -34.8162 -34.8162 -34.8156 -34.8153 -34.8136 -34.8122 -34.8117 -34.8109
   -34.7663 -34.7651 -34.7642 -34.7627 -34.7626 -34.7619 -34.7611 -34.7603
   -34.7602 -34.7601 -34.7597 -34.7594 -34.7593 -34.7588 -34.7588 -34.7584
   -34.7581 -34.7577 -34.7573 -34.7572 -34.7569 -34.7567 -34.7566 -34.7562
   -34.7562 -34.7560 -34.7558 -34.7554 -34.7537 -34.7526 -34.7500 -34.7476
   -34.7467 -34.7453 -34.7409 -34.7379 -34.7077 -34.7019 -34.6986 -34.6973
   -34.6968 -34.6956 -34.6952 -34.6936 -34.6931 -34.6930 -34.6910 -34.6878
   -34.6875 -34.6866 -34.6853 -34.6846 -34.6841 -34.6799 -34.6798 -34.6790
   -34.6783 -34.6781 -34.6765 -34.6756 -34.6754 -34.6746 -34.6731 -34.6729
   -34.6727 -34.6727 -34.6723 -34.6717 -34.6714 -34.6707 -34.6635 -34.6631
     3.7293   3.7896   3.9899   4.0554   4.0611   4.0649   4.6718   4.6879
     4.7775   4.8151   5.1198   5.1325   5.1948   5.2212   5.2285   5.2285
     5.2563   5.3832   5.4277   5.4281   5.4328   5.5119   5.5168   5.5187
     5.5292   5.5332   5.5434   5.5533   5.5818   5.6832   5.7305   5.7328
     5.8340   6.0738   6.0906   6.2188   8.7115   9.7385   9.9710   9.9880
     9.9929  10.0400  10.0640  10.1688  10.1777  10.1861  10.1875  10.2473
    10.3000  10.3441  10.3664  10.3759  10.4423  10.4886  10.5161  10.5443
    10.5444  10.5478  10.5552  10.7635  10.7781  10.8667  10.8873  11.0295
    11.0359  11.3661  11.3873  11.6271  11.6338  11.6350  11.6788  11.7465
    11.7550  11.7573  11.7947  11.8647  11.9024  11.9740  11.9758  12.0172
    12.0318  12.0500  12.0697  12.0756  12.0779  12.0957  12.0973  12.2717
    12.2857  12.3014  12.3493  12.3770  12.3791  12.3830  12.3873  12.4005
    12.4227  12.4406  12.4632  12.5747  12.5772  12.5849  12.5962  12.6216
    12.6309  12.6521  12.6628  12.6679  12.6748  12.6778  12.6827  12.6859
    12.6881  12.7923  12.8252  12.8320  12.8349  12.8408  12.8424  12.8480
    12.8640  12.8676  12.9159  13.0237  13.0282  13.0901  13.1055  13.1213
    13.1239  13.1253  13.1395  13.1509  13.1524  13.1562  13.1618  13.3117
    13.3325  13.3364  13.4305  13.4311  13.4485  13.4497  13.4673  13.4736
    13.6455  14.6220  14.6556  14.6678  14.6782  14.6791  14.6830  14.6845
    14.6845  14.6887  14.7059  14.7069  14.7094  14.7126  14.7301  14.7384
    14.7403  14.7441  14.7556  14.7564  14.7602  14.7616  14.7675  14.7879
    14.8040  14.8054  14.8086  14.8206  14.8310  14.8852  14.8889  14.8954
    14.9004  14.9398  14.9405  14.9567  14.9620  14.9635  15.0083  15.0630
    15.0642  15.0778  15.0785  15.0817  15.0851  15.0905  15.1248  15.1270
    15.1365  15.1467  15.1511  15.1545  15.1550  15.1586  15.1789  15.1996
    15.2165  15.2171  15.2271  15.2506  15.2536  15.2617  15.2627  15.2732
    15.2770  15.2920  15.3242  15.3668  15.3709  15.4294  15.4587  15.5063
    15.5125  15.5146  15.5312  15.5386  15.7454  15.7466  15.7700  15.7778
    15.7897  15.7986  15.8029  15.8042  15.8897  15.8990  15.9656  15.9942
    16.0022  16.0115  16.0172  16.0232  16.0239  16.0327  16.0528  16.0808
    16.0912  16.1041  16.1493  16.1517  16.1987  16.2115  16.2133  16.2192
    16.2237  16.2333  16.2958  16.3091  16.3406  16.3433  16.3536  16.3805
    16.3819  16.3900  16.3969  16.4025  16.4047  16.4149  16.4205  16.4248
    16.4291  16.4705  16.4782  16.5601  16.5743  16.5822  16.5826  16.5879
    16.6065  16.6069  16.6286  16.6328  16.6355  16.6405  16.6476  16.6493
    16.6536  16.6563  16.6721  16.6828  16.7037  16.7233  16.7296  16.7692
    16.8307  16.8447  16.8551  16.8619  16.8654  16.8679  16.8775  16.8934
    16.8957  16.9162  16.9185  16.9215  16.9330  16.9512  16.9581  16.9660
    16.9753  16.9756  16.9859  16.9913  16.9947  16.9987  17.0045  17.0076
    17.0142  17.0213  17.0505  17.0577  17.0584  17.0685  17.0701  17.1024
    17.1139  17.1214  17.1367  17.1901  17.2116  17.2161  17.2195  17.2314
    17.2325  17.2372  17.2442  17.2527  17.2541  17.2553  17.2643  17.2815
    17.3019  17.3163  17.3212  17.3252  17.3253  17.3971  17.4036  17.4331
    17.4381  17.4417  17.4522  17.4679  17.4681  17.4810  17.4958  17.5037
    17.5096  17.5134  17.6307  17.6459  17.6524  17.6564  17.7050  17.7228
    17.8429  17.8729  17.8882  17.8892  17.8955  17.8997  17.9082  17.9124
    17.9335  17.9454  17.9528  17.9574  17.9624  17.9734  17.9953  17.9996
    18.0103  18.0153  18.0186  18.0260  18.0275  18.0329  18.0372  18.0602
    18.0724  18.0752  18.0791  18.0814  18.0853  18.0892  18.0905  18.0957
    18.0964  18.1017  18.1055  18.1222  18.1495  18.1675  18.1695  18.1783
    18.2012  18.2052  18.2248  18.2397  18.2654  18.2673  18.2704  18.2724
    18.2797  18.2836  18.2892  18.2903  18.3324  18.3341  18.3380  18.3418
    18.3421  18.3462  18.3534  18.3590  18.3722  18.3742  18.3761  18.3791
    18.3810  18.3840  18.3860  18.3901  18.4297  18.4313  18.4626  18.4742
    18.4849  18.5404  18.7518  18.7643  18.7664  18.7702  18.7719  18.7831
    19.0123  19.0408  19.0505  19.0535  19.0746  19.1740  19.1950  19.2546
    19.2620  19.2681  19.3341  19.4030  19.4053  19.4068  19.4140  19.4153
    19.5368  19.5405  19.5713  19.6175  19.6678  19.7009  19.7586  19.7714
    19.7931  19.7978  19.8042  19.8045  19.8390  19.8613  19.8747  19.9304
    19.9358  19.9472  19.9648  19.9892  20.0350  20.0498  20.0565  20.0622
    20.0957  20.1062  20.1151  20.1339  20.1498  20.1566  20.2007  20.2213
    20.2340  20.3636  20.3895  20.4005  20.4016  20.4081  20.4092  20.5892
    20.5990  20.6159  20.6189  20.7028  20.7183  20.8591  20.8990  20.9485
    21.1199  21.3771  21.4425  21.5772  21.6006  21.6724  22.2007  22.2274

     occupation numbers 
     1.0000   1.0000   1.0000   1.0000   1.0000   1.0000   1.0000   1.0000
     1.0000   1.0000   1.0000   1.0000   1.0000   1.0000   1.0000   1.0000
     1.0000   1.0000   1.0000   1.0000   1.0000   1.0000   1.0000   1.0000
     1.0000   1.0000   1.0000   1.0000   1.0000   1.0000   1.0000   1.0000
     1.0000   1.0000   1.0000   1.0000   1.0000   1.0000   1.0000   1.0000
     1.0000   1.0000   1.0000   1.0000   1.0000   1.0000   1.0000   1.0000
     1.0000   1.0000   1.0000   1.0000   1.0000   1.0000   1.0000   1.0000
     1.0000   1.0000   1.0000   1.0000   1.0000   1.0000   1.0000   1.0000
     1.0000   1.0000   1.0000   1.0000   1.0000   1.0000   1.0000   1.0000
     1.0000   1.0000   1.0000   1.0000   1.0000   1.0000   1.0000   1.0000
     1.0000   1.0000   1.0000   1.0000   1.0000   1.0000   1.0000   1.0000
     1.0000   1.0000   1.0000   1.0000   1.0000   1.0000   1.0000   1.0000
     1.0000   1.0000   1.0000   1.0000   1.0000   1.0000   1.0000   1.0000
     1.0000   1.0000   1.0000   1.0000   1.0000   1.0000   1.0000   1.0000
     1.0000   1.0000   1.0000   1.0000   1.0000   1.0000   1.0000   1.0000
     1.0000   1.0000   1.0000   1.0000   1.0000   1.0000   1.0000   1.0000
     1.0000   1.0000   1.0000   1.0000   1.0000   1.0000   1.0000   1.0000
     1.0000   1.0000   1.0000   1.0000   1.0000   1.0000   1.0000   1.0000
     1.0000   1.0000   1.0000   1.0000   1.0000   1.0000   1.0000   1.0000
     1.0000   1.0000   1.0000   1.0000   1.0000   1.0000   1.0000   1.0000
     1.0000   1.0000   1.0000   1.0000   1.0000   1.0000   1.0000   1.0000
     1.0000   1.0000   1.0000   1.0000   1.0000   1.0000   1.0000   1.0000
     1.0000   1.0000   1.0000   1.0000   1.0000   1.0000   1.0000   1.0000
     1.0000   1.0000   1.0000   1.0000   1.0000   1.0000   1.0000   1.0000
     1.0000   1.0000   1.0000   1.0000   1.0000   1.0000   1.0000   1.0000
     1.0000   1.0000   1.0000   1.0000   1.0000   1.0000   1.0000   1.0000
     1.0000   1.0000   1.0000   1.0000   1.0000   1.0000   1.0000   1.0000
     1.0000   1.0000   1.0000   1.0000   1.0000   1.0000   1.0000   1.0000
     1.0000   1.0000   1.0000   1.0000   1.0000   1.0000   1.0000   1.0000
     1.0000   1.0000   1.0000   1.0000   1.0000   1.0000   1.0000   1.0000
     1.0000   1.0000   1.0000   1.0000   1.0000   1.0000   1.0000   1.0000
     1.0000   1.0000   1.0000   1.0000   1.0000   1.0000   1.0000   1.0000
     1.0000   1.0000   1.0000   1.0000   1.0000   1.0000   1.0000   1.0000
     1.0000   1.0000   1.0000   1.0000   1.0000   1.0000   1.0000   1.0000
     1.0000   1.0000   1.0000   1.0000   1.0000   1.0000   1.0000   1.0000
     1.0000   1.0000   1.0000   1.0000   1.0000   1.0000   1.0000   1.0000
     1.0000   1.0000   1.0000   1.0000   1.0000   1.0000   1.0000   1.0000
     1.0000   1.0000   1.0000   1.0000   1.0000   1.0000   1.0000   1.0000
     1.0000   1.0000   1.0000   1.0000   1.0000   1.0000   1.0000   1.0000
     1.0000   1.0000   1.0000   1.0000   1.0000   1.0000   1.0000   1.0000
     1.0000   1.0000   1.0000   1.0000   1.0000   1.0000   1.0000   1.0000
     1.0000   1.0000   1.0000   1.0000   1.0000   1.0000   1.0000   1.0000
     1.0000   1.0000   1.0000   1.0000   1.0000   1.0000   1.0000   1.0000
     1.0000   1.0000   1.0000   1.0000   1.0000   1.0000   1.0000   1.0000
     1.0000   1.0000   1.0000   1.0000   1.0000   1.0000   1.0000   1.0000
     1.0000   1.0000   1.0000   1.0000   1.0000   1.0000   1.0000   1.0000
     1.0000   1.0000   1.0000   1.0000   1.0000   1.0000   1.0000   1.0000
     1.0000   1.0000   1.0000   1.0000   1.0000   1.0000   1.0000   1.0000
     1.0000   1.0000   1.0000   1.0000   1.0000   1.0000   1.0000   1.0000
     1.0000   1.0000   1.0000   1.0000   1.0000   1.0000   1.0000   1.0000
     1.0000   1.0000   1.0000   1.0000   1.0000   1.0000   1.0000   1.0000
     1.0000   1.0000   1.0000   1.0000   1.0000   1.0000   1.0000   1.0000
     1.0000   1.0000   1.0000   1.0000   1.0000   1.0000   1.0000   1.0000
     1.0000   1.0000   1.0000   1.0000   1.0000   1.0000   1.0000   1.0000
     1.0000   1.0000   1.0000   1.0000   1.0000   1.0000   1.0000   1.0000
     1.0000   1.0000   1.0000   1.0000   1.0000   1.0000   1.0000   1.0000
     1.0000   1.0000   1.0000   1.0000   1.0000   1.0000   1.0000   1.0000
     1.0000   1.0000   1.0000   1.0000   1.0000   1.0000   1.0000   1.0000
     1.0000   1.0000   1.0000   1.0000   1.0000   1.0000   1.0000   1.0000
     1.0000   1.0000   1.0000   1.0000   1.0000   1.0000   1.0000   1.0000
     1.0000   1.0000   1.0000   1.0000   1.0000   1.0000   1.0000   1.0000
     1.0000   1.0000   1.0000   1.0000   1.0000   1.0000   1.0000   1.0000
     1.0000   1.0000   1.0000   1.0000   1.0000   1.0000   1.0000   1.0000
     1.0000   1.0000   1.0000   1.0000   1.0000   1.0000   1.0000   1.0000
     1.0000   1.0000   1.0000   1.0000   1.0000   1.0000   1.0000   1.0000
     1.0000   1.0000   1.0000   1.0000   1.0000   1.0000   1.0000   1.0000
     1.0000   1.0000   1.0000   1.0000   1.0000   1.0000   1.0000   1.0000
     1.0000   1.0000   1.0000   1.0000   1.0000   1.0000   1.0000   1.0000
     1.0000   1.0000   1.0000   1.0000   1.0000   1.0000   1.0000   1.0000
     1.0000   0.9999   0.9999   0.9996   0.9995   0.9995   0.9995   0.9994
     0.9992   0.9992   0.9988   0.9987   0.9986   0.9985   0.9983   0.9983
     0.9982   0.9981   0.9975   0.9970   0.9959   0.9945   0.9939   0.9893
     0.9763   0.9719   0.9682   0.9657   0.9643   0.9632   0.9590   0.9512
     0.9500   0.9380   0.9365   0.9346   0.9266   0.9125   0.9067   0.8997
     0.8909   0.8906   0.8802   0.8745   0.8708   0.8664   0.8598   0.8562
     0.8483   0.8395   0.7995   0.7890   0.7880   0.7724   0.7699   0.7158
     0.6952   0.6815   0.6525   0.5456   0.5012   0.4919   0.4847   0.4601
     0.4579   0.4483   0.4340   0.4165   0.4137   0.4113   0.3933   0.3594
     0.3205   0.2943   0.2854   0.2785   0.2783   0.1682   0.1599   0.1254
     0.1201   0.1165   0.1061   0.0919   0.0918   0.0812   0.0702   0.0649
     0.0611   0.0587   0.0148   0.0121   0.0111   0.0105   0.0052   0.0040
     0.0005   0.0003   0.0002   0.0002   0.0002   0.0002   0.0001   0.0001
     0.0001   0.0001   0.0001   0.0001   0.0000   0.0000   0.0000   0.0000
     0.0000   0.0000   0.0000   0.0000   0.0000   0.0000   0.0000   0.0000
     0.0000   0.0000   0.0000   0.0000   0.0000   0.0000   0.0000   0.0000
     0.0000   0.0000   0.0000   0.0000   0.0000   0.0000   0.0000   0.0000
     0.0000   0.0000   0.0000   0.0000   0.0000   0.0000   0.0000   0.0000
     0.0000   0.0000   0.0000   0.0000   0.0000   0.0000   0.0000   0.0000
     0.0000   0.0000   0.0000   0.0000   0.0000   0.0000   0.0000   0.0000
     0.0000   0.0000   0.0000   0.0000   0.0000   0.0000   0.0000   0.0000
     0.0000   0.0000   0.0000   0.0000   0.0000   0.0000   0.0000   0.0000
     0.0000   0.0000   0.0000   0.0000   0.0000   0.0000   0.0000   0.0000
     0.0000   0.0000   0.0000   0.0000   0.0000   0.0000   0.0000   0.0000
     0.0000   0.0000   0.0000   0.0000   0.0000   0.0000   0.0000   0.0000
     0.0000   0.0000   0.0000   0.0000   0.0000   0.0000   0.0000   0.0000
     0.0000   0.0000   0.0000   0.0000   0.0000   0.0000   0.0000   0.0000
     0.0000   0.0000   0.0000   0.0000   0.0000   0.0000   0.0000   0.0000
     0.0000   0.0000   0.0000   0.0000   0.0000   0.0000   0.0000   0.0000
     0.0000   0.0000   0.0000   0.0000   0.0000   0.0000   0.0000   0.0000
     0.0000   0.0000   0.0000   0.0000   0.0000   0.0000   0.0000   0.0000

     the Fermi energy is    17.2122 ev

!    total energy              =  -25711.64786655 Ry
     Harris-Foulkes estimate   =  -25711.64785946 Ry
     estimated scf accuracy    <       0.00000008 Ry

     total all-electron energy =   -207916.882236 Ry

     The total energy is the sum of the following terms:

     one-electron contribution =   -9317.55052052 Ry
     hartree contribution      =    5526.00993425 Ry
     xc contribution           =   -2674.16828831 Ry
     ewald contribution        =  -12251.10042474 Ry
     one-center paw contrib.   =   -6994.56170750 Ry
      -> PAW hartree energy AE =     215.17100310 Ry
      -> PAW hartree energy PS =    -214.30678786 Ry
      -> PAW xc energy AE      =    -111.61085056 Ry
      -> PAW xc energy PS      =      34.59592394 Ry
      -> total E_H with PAW    =    5526.87414950 Ry
      -> total E_XC with PAW   =   -2751.18321493 Ry
     smearing contrib. (-TS)   =      -0.27685973 Ry

     total magnetization       =   106.14 Bohr mag/cell
     absolute magnetization    =   116.22 Bohr mag/cell

     convergence has been achieved in  26 iterations

     negative rho (up, down):  0.000E+00 9.305E-04

     Forces acting on atoms (cartesian axes, Ry/au):

     atom    1 type  1   force =    -0.00047753   -0.00034348    0.00000013
     atom    2 type  1   force =    -0.00033509   -0.00058039    0.00000009
     atom    3 type  1   force =    -0.00005870   -0.00058529    0.00000013
     atom    4 type  1   force =     0.00004034   -0.00000015   -0.00001445
     atom    5 type  1   force =     0.00012884    0.00022316    0.00009704
     atom    6 type  1   force =    -0.00002030    0.00003486   -0.00001445
     atom    7 type  1   force =     0.00004080   -0.00000088    0.00001408
     atom    8 type  1   force =     0.00012908    0.00022357   -0.00009750
     atom    9 type  1   force =    -0.00002117    0.00003489    0.00001408
     atom   10 type  1   force =     0.00053170   -0.00030575   -0.00000006
     atom   11 type  1   force =    -0.00010303   -0.00017845    0.00000008
     atom   12 type  1   force =    -0.00053063    0.00030759   -0.00000006
     atom   13 type  1   force =     0.00010753    0.00007857    0.00013518
     atom   14 type  1   force =     0.00000226    0.00000392   -0.00010486
     atom   15 type  1   force =     0.00001428    0.00013241    0.00013518
     atom   16 type  1   force =     0.00010767    0.00007825   -0.00013495
     atom   17 type  1   force =     0.00000222    0.00000385    0.00010472
     atom   18 type  1   force =     0.00001393    0.00013237   -0.00013495
     atom   19 type  1   force =     0.00067024   -0.00018577   -0.00000014
     atom   20 type  1   force =    -0.00005627   -0.00002215   -0.00000006
     atom   21 type  1   force =    -0.00025496   -0.00004124    0.00000007
     atom   22 type  1   force =    -0.00049600    0.00048756   -0.00000014
     atom   23 type  1   force =     0.00000895   -0.00005981   -0.00000006
     atom   24 type  1   force =     0.00009176   -0.00024142    0.00000007
     atom   25 type  1   force =    -0.00028652    0.00012644    0.00005694
     atom   26 type  1   force =     0.00026483    0.00027077   -0.00035530
     atom   27 type  1   force =    -0.00012626   -0.00017880   -0.00000075
     atom   28 type  1   force =    -0.00028657    0.00012676   -0.00005687
     atom   29 type  1   force =     0.00026470    0.00027084    0.00035532
     atom   30 type  1   force =    -0.00012629   -0.00017865    0.00000058
     atom   31 type  1   force =     0.00025306   -0.00018479   -0.00005687
     atom   32 type  1   force =     0.00010221    0.00036466    0.00035532
     atom   33 type  1   force =    -0.00009157   -0.00019869    0.00000058
     atom   34 type  1   force =     0.00025276   -0.00018491    0.00005694
     atom   35 type  1   force =     0.00010208    0.00036474   -0.00035530
     atom   36 type  1   force =    -0.00009172   -0.00019874   -0.00000075
     atom   37 type  1   force =     0.00022393   -0.00010065   -0.00000572
     atom   38 type  1   force =     0.00002080    0.00003602    0.00010944
     atom   39 type  1   force =    -0.00019913    0.00014361   -0.00000572
     atom   40 type  1   force =     0.00022399   -0.00010094    0.00000577
     atom   41 type  1   force =     0.00002063    0.00003574   -0.00010929
     atom   42 type  1   force =    -0.00019941    0.00014351    0.00000577
     atom   43 type  1   force =    -0.00001546   -0.00012833    0.00000004
     atom   44 type  1   force =    -0.00000025   -0.00000043    0.00000010
     atom   45 type  1   force =    -0.00010341   -0.00007755    0.00000004
     atom   46 type  1   force =     0.00001454   -0.00063788    0.00019715
     atom   47 type  1   force =    -0.00022494   -0.00038960   -0.00005518
     atom   48 type  1   force =    -0.00055969   -0.00030635    0.00019715
     atom   49 type  1   force =     0.00001471   -0.00063792   -0.00019713
     atom   50 type  1   force =    -0.00022517   -0.00039000    0.00005497
     atom   51 type  1   force =    -0.00055981   -0.00030622   -0.00019713
     atom   52 type  1   force =     0.00010633    0.00053649    0.00000017
     atom   53 type  1   force =    -0.00015200   -0.00026328    0.00000022
     atom   54 type  1   force =     0.00041145    0.00036033    0.00000017
     atom   55 type  1   force =    -0.00014915   -0.00020339   -0.00021882
     atom   56 type  1   force =    -0.00004994    0.00017797   -0.00004482
     atom   57 type  1   force =     0.00000638    0.00019211   -0.00013263
     atom   58 type  1   force =    -0.00014938   -0.00020329    0.00021912
     atom   59 type  1   force =    -0.00005008    0.00017797    0.00004506
     atom   60 type  1   force =     0.00000652    0.00019217    0.00013264
     atom   61 type  1   force =    -0.00010136   -0.00023101    0.00021912
     atom   62 type  1   force =     0.00017917    0.00004561    0.00004506
     atom   63 type  1   force =     0.00016317    0.00010173    0.00013264
     atom   64 type  1   force =    -0.00010157   -0.00023086   -0.00021882
     atom   65 type  1   force =     0.00017910    0.00004574   -0.00004482
     atom   66 type  1   force =     0.00016319    0.00010158   -0.00013263
     atom   67 type  1   force =     0.00055665    0.00000820   -0.00000011
     atom   68 type  1   force =     0.00042343    0.00017209    0.00000002
     atom   69 type  1   force =    -0.00016453   -0.00001742    0.00000016
     atom   70 type  1   force =    -0.00027122    0.00048617   -0.00000011
     atom   71 type  1   force =    -0.00006268    0.00045274    0.00000002
     atom   72 type  1   force =     0.00006718   -0.00015120    0.00000016
     atom   73 type  2   force =    -0.00032527    0.00029059    0.00000003
     atom   74 type  2   force =    -0.00093096    0.00019923    0.00000002
     atom   75 type  2   force =    -0.00028474    0.00011750   -0.00000001
     atom   76 type  2   force =     0.00041429   -0.00013639    0.00000003
     atom   77 type  2   force =     0.00063802   -0.00070662    0.00000002
     atom   78 type  2   force =     0.00024413   -0.00018784   -0.00000001
     atom   79 type  2   force =     0.00028523   -0.00009964   -0.00026680
     atom   80 type  2   force =     0.00005613   -0.00019086    0.00013005
     atom   81 type  2   force =     0.00009556    0.00026661   -0.00008760
     atom   82 type  2   force =     0.00028523   -0.00009984    0.00026676
     atom   83 type  2   force =     0.00005605   -0.00019077   -0.00012998
     atom   84 type  2   force =     0.00009563    0.00026660    0.00008753
     atom   85 type  2   force =    -0.00022908    0.00019710    0.00026676
     atom   86 type  2   force =    -0.00019324   -0.00004684   -0.00012998
     atom   87 type  2   force =     0.00018306    0.00021612    0.00008753
     atom   88 type  2   force =    -0.00022890    0.00019720   -0.00026680
     atom   89 type  2   force =    -0.00019336   -0.00004682    0.00013005
     atom   90 type  2   force =     0.00018311    0.00021606   -0.00008760
     atom   91 type  2   force =    -0.00014225   -0.00003568    0.00000002
     atom   92 type  2   force =     0.00004023   -0.00014103    0.00000002
     atom   93 type  2   force =     0.00019199    0.00005482   -0.00008821
     atom   94 type  2   force =     0.00019204    0.00005489    0.00008830
     atom   95 type  2   force =    -0.00004848    0.00019376    0.00008830
     atom   96 type  2   force =    -0.00004852    0.00019368   -0.00008821
     atom   97 type  2   force =    -0.00011123   -0.00019266   -0.00011314
     atom   98 type  2   force =    -0.00011124   -0.00019267    0.00011289
     atom   99 type  2   force =     0.00040333    0.00069859   -0.00000009
     atom  100 type  2   force =     0.00042651    0.00017518    0.00017895
     atom  101 type  2   force =    -0.00006518   -0.00011289    0.00006580
     atom  102 type  2   force =    -0.00006154    0.00045696    0.00017895
     atom  103 type  2   force =     0.00042650    0.00017513   -0.00017892
     atom  104 type  2   force =    -0.00006514   -0.00011283   -0.00006586
     atom  105 type  2   force =    -0.00006158    0.00045692   -0.00017892
     atom  106 type  2   force =    -0.00003828   -0.00001600    0.00000001
     atom  107 type  2   force =    -0.00023211   -0.00040202    0.00000002
     atom  108 type  2   force =     0.00000528   -0.00004115    0.00000001
     atom  109 type  3   force =    -0.00005986   -0.00010368   -0.00000103
     The non-local contrib.  to forces
     atom    1 type  1   force =     0.16547079    0.01348959    0.00000512
     atom    2 type  1   force =     0.00170319    0.00295001    0.00000090
     atom    3 type  1   force =    -0.07105307    0.15004671    0.00000512
     atom    4 type  1   force =    -0.00073276   -0.00584152    0.00284283
     atom    5 type  1   force =     0.00586263    0.01015438   -0.00904797
     atom    6 type  1   force =    -0.00469253   -0.00355535    0.00284283
     atom    7 type  1   force =    -0.00073226   -0.00584201   -0.00284362
     atom    8 type  1   force =     0.00586256    0.01015425    0.00904387
     atom    9 type  1   force =    -0.00469320   -0.00355516   -0.00284362
     atom   10 type  1   force =     0.00136021   -0.00096548   -0.00000007
     atom   11 type  1   force =     0.01089023    0.01886243   -0.00000038
     atom   12 type  1   force =    -0.00151623    0.00069524   -0.00000007
     atom   13 type  1   force =     0.00046606   -0.00219935   -0.00030525
     atom   14 type  1   force =     0.00114008    0.00197467    0.00125322
     atom   15 type  1   force =    -0.00213772   -0.00069606   -0.00030525
     atom   16 type  1   force =     0.00046603   -0.00219956    0.00030590
     atom   17 type  1   force =     0.00113984    0.00197426   -0.00125291
     atom   18 type  1   force =    -0.00213789   -0.00069619    0.00030590
     atom   19 type  1   force =    -0.01788362    0.00142121    0.00000017
     atom   20 type  1   force =     0.00040256    0.00204596    0.00000036
     atom   21 type  1   force =    -0.00052066   -0.00179564    0.00000011
     atom   22 type  1   force =     0.01017262   -0.01477706    0.00000017
     atom   23 type  1   force =     0.00157057    0.00137160    0.00000036
     atom   24 type  1   force =    -0.00129473   -0.00134872    0.00000011
     atom   25 type  1   force =    -0.00436751   -0.00041793    0.00217610
     atom   26 type  1   force =    -0.00054233    0.00138853    0.00014672
     atom   27 type  1   force =    -0.00195745    0.00099265    0.00244766
     atom   28 type  1   force =    -0.00436879   -0.00041754   -0.00217619
     atom   29 type  1   force =    -0.00054278    0.00138853   -0.00014692
     atom   30 type  1   force =    -0.00195727    0.00099304   -0.00244785
     atom   31 type  1   force =     0.00182279   -0.00399225   -0.00217619
     atom   32 type  1   force =     0.00147389    0.00022420   -0.00014692
     atom   33 type  1   force =     0.00183863   -0.00119852   -0.00244785
     atom   34 type  1   force =     0.00182182   -0.00399134    0.00217610
     atom   35 type  1   force =     0.00147366    0.00022459    0.00014672
     atom   36 type  1   force =     0.00183839   -0.00119888    0.00244766
     atom   37 type  1   force =    -0.00196067    0.00319805   -0.00356002
     atom   38 type  1   force =     0.00001944    0.00003367    0.00003486
     atom   39 type  1   force =     0.00374993   -0.00009896   -0.00356002
     atom   40 type  1   force =    -0.00195944    0.00319767    0.00356085
     atom   41 type  1   force =     0.00001889    0.00003272   -0.00003518
     atom   42 type  1   force =     0.00374899   -0.00009809    0.00356085
     atom   43 type  1   force =     0.00234109    0.00766045    0.00000026
     atom   44 type  1   force =    -0.00713652   -0.01236082    0.00000038
     atom   45 type  1   force =     0.00546359    0.00585767    0.00000026
     atom   46 type  1   force =    -0.00779402    0.01690204   -0.00064788
     atom   47 type  1   force =    -0.02042857   -0.03538333   -0.08173848
     atom   48 type  1   force =     0.01853461    0.00170120   -0.00064788
     atom   49 type  1   force =    -0.00779283    0.01690022    0.00064764
     atom   50 type  1   force =    -0.02042630   -0.03537940    0.08172070
     atom   51 type  1   force =     0.01853244    0.00170132    0.00064764
     atom   52 type  1   force =    -0.00296846    0.00749170    0.00000075
     atom   53 type  1   force =    -0.00214069   -0.00370779    0.00000042
     atom   54 type  1   force =     0.00797223    0.00117509    0.00000075
     atom   55 type  1   force =    -0.00668609    0.00182005   -0.00226932
     atom   56 type  1   force =    -0.00106146   -0.00490532    0.00117723
     atom   57 type  1   force =     0.00780869   -0.00066278    0.00122163
     atom   58 type  1   force =    -0.00668755    0.00181968    0.00227011
     atom   59 type  1   force =    -0.00106151   -0.00490528   -0.00117706
     atom   60 type  1   force =     0.00780918   -0.00066261   -0.00122141
     atom   61 type  1   force =     0.00491967   -0.00488175    0.00227011
     atom   62 type  1   force =    -0.00371734   -0.00337194   -0.00117706
     atom   63 type  1   force =    -0.00447843    0.00643165   -0.00122141
     atom   64 type  1   force =     0.00491925   -0.00488030   -0.00226932
     atom   65 type  1   force =    -0.00371740   -0.00337191    0.00117723
     atom   66 type  1   force =    -0.00447833    0.00643114    0.00122163
     atom   67 type  1   force =    -0.00303416   -0.00049921    0.00000025
     atom   68 type  1   force =    -0.00266613   -0.00490350   -0.00000009
     atom   69 type  1   force =     0.00759401   -0.00052362    0.00000007
     atom   70 type  1   force =     0.00108475   -0.00287726    0.00000025
     atom   71 type  1   force =    -0.00291350   -0.00476069   -0.00000009
     atom   72 type  1   force =    -0.00425047    0.00631479    0.00000007
     atom   73 type  2   force =    -0.00173152   -0.04690847    0.00000247
     atom   74 type  2   force =    -0.00350089   -0.00085909   -0.00000004
     atom   75 type  2   force =    -0.00513063    0.00452783   -0.00000009
     atom   76 type  2   force =    -0.03975817   -0.02495377    0.00000247
     atom   77 type  2   force =     0.00100646   -0.00346140   -0.00000004
     atom   78 type  2   force =     0.00648653   -0.00217935   -0.00000009
     atom   79 type  2   force =     0.00596762   -0.00223649    0.00007114
     atom   80 type  2   force =    -0.00072106   -0.00073921   -0.00015603
     atom   81 type  2   force =     0.00091947   -0.00014529   -0.00042212
     atom   82 type  2   force =     0.00596808   -0.00223721   -0.00007091
     atom   83 type  2   force =    -0.00072090   -0.00073889    0.00015609
     atom   84 type  2   force =     0.00091924   -0.00014527    0.00042215
     atom   85 type  2   force =    -0.00492152    0.00404990   -0.00007091
     atom   86 type  2   force =    -0.00027945   -0.00099376    0.00015609
     atom   87 type  2   force =    -0.00058543    0.00072345    0.00042215
     atom   88 type  2   force =    -0.00492066    0.00404987    0.00007114
     atom   89 type  2   force =    -0.00027965   -0.00099406   -0.00015603
     atom   90 type  2   force =    -0.00058556    0.00072364   -0.00042212
     atom   91 type  2   force =    -0.00080871    0.00074155    0.00000003
     atom   92 type  2   force =     0.00104656   -0.00032958    0.00000003
     atom   93 type  2   force =    -0.00055115   -0.00007048    0.00053475
     atom   94 type  2   force =    -0.00055152   -0.00007033   -0.00053464
     atom   95 type  2   force =     0.00021485   -0.00051280   -0.00053464
     atom   96 type  2   force =     0.00021454   -0.00051255    0.00053475
     atom   97 type  2   force =     0.01783143    0.03088494   -0.02369434
     atom   98 type  2   force =     0.01782806    0.03087912    0.02368767
     atom   99 type  2   force =     0.00216879    0.00375646    0.00000000
     atom  100 type  2   force =     0.00048065    0.00024480    0.00065200
     atom  101 type  2   force =     0.00050085    0.00086750    0.00302587
     atom  102 type  2   force =    -0.00002832    0.00053865    0.00065200
     atom  103 type  2   force =     0.00048069    0.00024477   -0.00065191
     atom  104 type  2   force =     0.00050060    0.00086707   -0.00302584
     atom  105 type  2   force =    -0.00002837    0.00053868   -0.00065191
     atom  106 type  2   force =     0.00050235    0.00014848   -0.00000005
     atom  107 type  2   force =    -0.00243727   -0.00422148    0.00000004
     atom  108 type  2   force =    -0.00012259    0.00050929   -0.00000005
     atom  109 type  3   force =    -0.00786215   -0.01361765    0.00000115
     The ionic contribution  to forces
     atom    1 type  1   force =    -3.93339255    4.69972044   -0.00001775
     atom    2 type  1   force =    -2.50499906   -4.33916028    0.00003686
     atom    3 type  1   force =     6.03712455   -1.05690184   -0.00001394
     atom    4 type  1   force =    -3.09718416    4.45798755   -0.33487759
     atom    5 type  1   force =    -2.54286837   -4.40477909   -0.56749094
     atom    6 type  1   force =     5.40994007   -0.45335344   -0.33516711
     atom    7 type  1   force =    -3.09717094    4.45798657    0.33484882
     atom    8 type  1   force =    -2.54287827   -4.40478210    0.56740359
     atom    9 type  1   force =     5.40993231   -0.45333906    0.33513534
     atom   10 type  1   force =    -2.74301790    4.59426651    0.00002033
     atom   11 type  1   force =    -3.19978828   -5.54290977    0.00003045
     atom   12 type  1   force =     5.34940198   -0.07893068    0.00001128
     atom   13 type  1   force =    -2.62865899    4.53507605   -0.20731021
     atom   14 type  1   force =    -2.42202293   -4.19581811   -0.29406667
     atom   15 type  1   force =     5.24160587   -0.00913382   -0.20747916
     atom   16 type  1   force =    -2.62864123    4.53505446    0.20729853
     atom   17 type  1   force =    -2.42203431   -4.19583068    0.29405313
     atom   18 type  1   force =     5.24157856   -0.00914039    0.20747647
     atom   19 type  1   force =    -3.12805085    4.80486046    0.00000913
     atom   20 type  1   force =    -2.50606448   -4.69170824    0.00003235
     atom   21 type  1   force =     4.94769075   -0.20318360    0.00004456
     atom   22 type  1   force =     5.72523537   -0.30608934    0.00001250
     atom   23 type  1   force =    -2.81098222   -4.51596199    0.00002392
     atom   24 type  1   force =    -2.64984473    4.18342032    0.00004056
     atom   25 type  1   force =    -2.64047946    4.52468568   -0.21485833
     atom   26 type  1   force =    -2.59510699   -4.55722004   -0.20168727
     atom   27 type  1   force =     5.40393060    0.01514203   -0.27540288
     atom   28 type  1   force =    -2.64047950    4.52467606    0.21485665
     atom   29 type  1   force =    -2.59512576   -4.55720601    0.20165751
     atom   30 type  1   force =     5.40393746    0.01515427    0.27535411
     atom   31 type  1   force =     5.23888297   -0.02420426    0.21491311
     atom   32 type  1   force =    -2.64922439   -4.52582013    0.20177081
     atom   33 type  1   force =    -2.68873655    4.68755664    0.27532285
     atom   34 type  1   force =     5.23888067   -0.02420112   -0.21492068
     atom   35 type  1   force =    -2.64925403   -4.52580780   -0.20179172
     atom   36 type  1   force =    -2.68873462    4.68753289   -0.27536466
     atom   37 type  1   force =     1.69721296   -2.62109274   -0.43916456
     atom   38 type  1   force =     1.54182680    2.67055601   -0.45465107
     atom   39 type  1   force =    -3.11921865    0.15897603   -0.43944477
     atom   40 type  1   force =     1.69726936   -2.62107814    0.43918712
     atom   41 type  1   force =     1.54181442    2.67054246    0.45468051
     atom   42 type  1   force =    -3.11922252    0.15902883    0.43946618
     atom   43 type  1   force =     1.35907344   -2.47715871   -0.00001847
     atom   44 type  1   force =     1.38951545    2.40656125   -0.00001142
     atom   45 type  1   force =    -2.82480732   -0.06150000   -0.00001955
     atom   46 type  1   force =     1.37351975   -2.25104749   -0.33810003
     atom   47 type  1   force =     1.56102651    2.70214612   -1.85364045
     atom   48 type  1   force =    -2.63671906    0.06307696   -0.33763693
     atom   49 type  1   force =     1.37353677   -2.25106705    0.33811086
     atom   50 type  1   force =     1.56093939    2.70200201    1.85379319
     atom   51 type  1   force =    -2.63675087    0.06308201    0.33764275
     atom   52 type  1   force =     1.62891022   -2.37192687   -0.00002063
     atom   53 type  1   force =     1.39860288    2.42169195   -0.00004551
     atom   54 type  1   force =    -2.86872648    0.22452752   -0.00001451
     atom   55 type  1   force =     1.16108095   -2.72834094   -0.83429607
     atom   56 type  1   force =     1.44449726    2.54716712   -0.18480115
     atom   57 type  1   force =    -2.76816784   -0.00035795   -0.19344488
     atom   58 type  1   force =     1.16104428   -2.72839838    0.83434751
     atom   59 type  1   force =     1.44448523    2.54713976    0.18481804
     atom   60 type  1   force =    -2.76812105   -0.00034772    0.19347547
     atom   61 type  1   force =    -2.94344895   -0.35821258    0.83424172
     atom   62 type  1   force =     1.48357658    2.52550096    0.18521654
     atom   63 type  1   force =     1.38378857   -2.39709471    0.19359079
     atom   64 type  1   force =    -2.94342063   -0.35815423   -0.83419463
     atom   65 type  1   force =     1.48358397    2.52551297   -0.18520265
     atom   66 type  1   force =     1.38380429   -2.39714221   -0.19357282
     atom   67 type  1   force =     1.67463478   -2.70675238   -0.00001876
     atom   68 type  1   force =     1.46328240    2.48847242   -0.00001500
     atom   69 type  1   force =    -2.71504867   -0.07967446   -0.00001989
     atom   70 type  1   force =    -3.18128574    0.09708729   -0.00001325
     atom   71 type  1   force =     1.42340638    2.51176542   -0.00001098
     atom   72 type  1   force =     1.28837648   -2.39099001   -0.00000951
     atom   73 type  2   force =     0.30282923   -0.45955705    0.00000402
     atom   74 type  2   force =     0.01422647   -0.00493547    0.00001031
     atom   75 type  2   force =    -0.12605202    0.17884698    0.00001192
     atom   76 type  2   force =    -0.54941771    0.03266432    0.00000472
     atom   77 type  2   force =    -0.01147455    0.00994892    0.00001104
     atom   78 type  2   force =     0.21735297   -0.01974040    0.00001165
     atom   79 type  2   force =    -0.12874413    0.12322128   -0.04175944
     atom   80 type  2   force =    -0.02510389    0.04321765   -0.13321013
     atom   81 type  2   force =     0.01729466    0.05595033   -0.07040467
     atom   82 type  2   force =    -0.12873960    0.12320714    0.04177770
     atom   83 type  2   force =    -0.02510699    0.04321792    0.13319692
     atom   84 type  2   force =     0.01728903    0.05594391    0.07039062
     atom   85 type  2   force =     0.17110103   -0.04998289    0.04190623
     atom   86 type  2   force =     0.04995306   -0.00011850    0.13309927
     atom   87 type  2   force =     0.03970359    0.04285184    0.07027562
     atom   88 type  2   force =     0.17111612   -0.04997847   -0.04188845
     atom   89 type  2   force =     0.04995395   -0.00011806   -0.13311413
     atom   90 type  2   force =     0.03970476    0.04286285   -0.07028913
     atom   91 type  2   force =    -0.10537099   -0.04482702    0.00001600
     atom   92 type  2   force =     0.01378069   -0.11353593    0.00001501
     atom   93 type  2   force =     0.05857202   -0.02665260   -0.04784450
     atom   94 type  2   force =     0.05857966   -0.02665835    0.04782677
     atom   95 type  2   force =    -0.05233078    0.03748832    0.04784295
     atom   96 type  2   force =    -0.05232404    0.03748199   -0.04785947
     atom   97 type  2   force =     0.11979119    0.20710805   -0.39704456
     atom   98 type  2   force =     0.11978287    0.20709658    0.39698571
     atom   99 type  2   force =     0.02752658    0.04745637   -0.00000195
     atom  100 type  2   force =     0.02254115   -0.03669933   -0.04623877
     atom  101 type  2   force =    -0.05497410   -0.09534620   -0.19185402
     atom  102 type  2   force =    -0.04309453    0.00119686   -0.04625833
     atom  103 type  2   force =     0.02253951   -0.03669157    0.04624401
     atom  104 type  2   force =    -0.05497903   -0.09535115    0.19186814
     atom  105 type  2   force =    -0.04308562    0.00119728    0.04626241
     atom  106 type  2   force =     0.00333806   -0.00419302   -0.00000562
     atom  107 type  2   force =    -0.00896192   -0.01560500   -0.00001005
     atom  108 type  2   force =    -0.00539870    0.00079715   -0.00000458
     atom  109 type  3   force =     0.84091008    1.45609657   -0.00008039
     The local contribution  to forces
     atom    1 type  1   force =     3.75657131   -4.70250379    0.00000203
     atom    2 type  1   force =     2.49602515    4.33373551   -0.00003712
     atom    3 type  1   force =    -5.97004158    0.91191659    0.00001995
     atom    4 type  1   force =     3.09688754   -4.44858480    0.32843620
     atom    5 type  1   force =     2.53602546    4.38983393    0.57634274
     atom    6 type  1   force =    -5.39917273    0.45540683    0.33584353
     atom    7 type  1   force =     3.09688253   -4.44857662   -0.32839516
     atom    8 type  1   force =     2.53597835    4.38987213   -0.57625249
     atom    9 type  1   force =    -5.39916911    0.45538201   -0.33582393
     atom   10 type  1   force =     2.73721521   -4.58214021    0.00002171
     atom   11 type  1   force =     3.17759752    5.52311975   -0.00002968
     atom   12 type  1   force =    -5.35082731    0.07698949   -0.00005325
     atom   13 type  1   force =     2.62633666   -4.52887718    0.20790209
     atom   14 type  1   force =     2.42043927    4.18895555    0.29270875
     atom   15 type  1   force =    -5.23404834    0.00959287    0.20781579
     atom   16 type  1   force =     2.62634590   -4.52883209   -0.20793460
     atom   17 type  1   force =     2.42043265    4.18897932   -0.29269613
     atom   18 type  1   force =    -5.23402780    0.00956356   -0.20776974
     atom   19 type  1   force =     3.13991156   -4.80221211   -0.00000545
     atom   20 type  1   force =     2.49745736    4.69199499   -0.00002338
     atom   21 type  1   force =    -4.94537679    0.20476878   -0.00003023
     atom   22 type  1   force =    -5.73240112    0.32507081   -0.00001616
     atom   23 type  1   force =     2.79851993    4.51193222   -0.00003408
     atom   24 type  1   force =     2.64742097   -4.17535406   -0.00005519
     atom   25 type  1   force =     2.64225003   -4.52070250    0.21185672
     atom   26 type  1   force =     2.59365201    4.55080624    0.20171752
     atom   27 type  1   force =    -5.39616629   -0.01778730    0.27177831
     atom   28 type  1   force =     2.64224671   -4.52072432   -0.21184343
     atom   29 type  1   force =     2.59369164    4.55079255   -0.20169730
     atom   30 type  1   force =    -5.39624024   -0.01779476   -0.27177768
     atom   31 type  1   force =    -5.23473082    0.02814817   -0.21364397
     atom   32 type  1   force =     2.64635009    4.52184151   -0.20079750
     atom   33 type  1   force =     2.68625045   -4.68243772   -0.27403947
     atom   34 type  1   force =    -5.23475130    0.02812324    0.21363940
     atom   35 type  1   force =     2.64636928    4.52184875    0.20082843
     atom   36 type  1   force =     2.68628558   -4.68246964    0.27412929
     atom   37 type  1   force =    -1.69784461    2.62424122    0.44341293
     atom   38 type  1   force =    -1.54200578   -2.67175821    0.45470093
     atom   39 type  1   force =     3.11055863   -0.15938307    0.44284088
     atom   40 type  1   force =    -1.69789001    2.62421117   -0.44342855
     atom   41 type  1   force =    -1.54196878   -2.67175866   -0.45473019
     atom   42 type  1   force =     3.11058102   -0.15944101   -0.44287056
     atom   43 type  1   force =    -1.35984522    2.46805001    0.00002935
     atom   44 type  1   force =    -1.38069396   -2.39661669    0.00001124
     atom   45 type  1   force =     2.82312705    0.05489311    0.00000826
     atom   46 type  1   force =    -1.36633370    2.23953329    0.33774404
     atom   47 type  1   force =    -1.53509901   -2.67058718    1.93678427
     atom   48 type  1   force =     2.61453748   -0.06732759    0.33956939
     atom   49 type  1   force =    -1.36638288    2.23955160   -0.33775087
     atom   50 type  1   force =    -1.53501785   -2.67044661   -1.93692025
     atom   51 type  1   force =     2.61455818   -0.06730363   -0.33957971
     atom   52 type  1   force =    -1.62637579    2.36391616   -0.00000000
     atom   53 type  1   force =    -1.39632936   -2.41944767    0.00004608
     atom   54 type  1   force =     2.86362235   -0.22444414    0.00003516
     atom   55 type  1   force =    -1.15990341    2.72739054    0.83433511
     atom   56 type  1   force =    -1.44829013   -2.54319261    0.18443514
     atom   57 type  1   force =     2.75993368    0.00078186    0.19254823
     atom   58 type  1   force =    -1.15985016    2.72746343   -0.83438588
     atom   59 type  1   force =    -1.44834306   -2.54316267   -0.18445573
     atom   60 type  1   force =     2.75988670    0.00080194   -0.19256259
     atom   61 type  1   force =     2.93691963    0.36706667   -0.83808219
     atom   62 type  1   force =    -1.48235124   -2.51883064   -0.18308200
     atom   63 type  1   force =    -1.38003427    2.39294082   -0.19183588
     atom   64 type  1   force =     2.93689497    0.36702714    0.83803494
     atom   65 type  1   force =    -1.48232387   -2.51889838    0.18307200
     atom   66 type  1   force =    -1.38002330    2.39300367    0.19180044
     atom   67 type  1   force =    -1.66992775    2.70709262    0.00000077
     atom   68 type  1   force =    -1.45937859   -2.48526401    0.00001657
     atom   69 type  1   force =     2.70832649    0.07882686    0.00000281
     atom   70 type  1   force =     3.18244791   -0.09441672    0.00002889
     atom   71 type  1   force =    -1.41954124   -2.50799217    0.00000954
     atom   72 type  1   force =    -1.28334457    2.38594322    0.00002742
     atom   73 type  2   force =    -0.30125343    0.50375738   -0.00000658
     atom   74 type  2   force =    -0.01187479    0.00586534   -0.00001045
     atom   75 type  2   force =     0.13060045   -0.18291463   -0.00001166
     atom   76 type  2   force =     0.58702424   -0.00931692   -0.00000651
     atom   77 type  2   force =     0.01119935   -0.00741875   -0.00001055
     atom   78 type  2   force =    -0.22302014    0.02148662   -0.00001165
     atom   79 type  2   force =     0.12338669   -0.12112848    0.04154947
     atom   80 type  2   force =     0.02578654   -0.04269618    0.13340780
     atom   81 type  2   force =    -0.01806198   -0.05542404    0.07065536
     atom   82 type  2   force =     0.12338229   -0.12111421   -0.04156792
     atom   83 type  2   force =     0.02578804   -0.04269616   -0.13339395
     atom   84 type  2   force =    -0.01805464   -0.05541799   -0.07064164
     atom   85 type  2   force =    -0.16665675    0.04634805   -0.04155643
     atom   86 type  2   force =    -0.04991309    0.00102338   -0.13339609
     atom   87 type  2   force =    -0.03903260   -0.04331921   -0.07064890
     atom   88 type  2   force =    -0.16667161    0.04634456    0.04153802
     atom   89 type  2   force =    -0.04991298    0.00102264    0.13341021
     atom   90 type  2   force =    -0.03903479   -0.04332930    0.07066243
     atom   91 type  2   force =     0.10594605    0.04408780   -0.00001559
     atom   92 type  2   force =    -0.01471624    0.11364313   -0.00001554
     atom   93 type  2   force =    -0.05787495    0.02677198    0.04726702
     atom   94 type  2   force =    -0.05788194    0.02677624   -0.04724973
     atom   95 type  2   force =     0.05205283   -0.03678188   -0.04724506
     atom   96 type  2   force =     0.05204473   -0.03677743    0.04726221
     atom   97 type  2   force =    -0.13633587   -0.23620696    0.41895637
     atom   98 type  2   force =    -0.13632548   -0.23618905   -0.41889202
     atom   99 type  2   force =    -0.02900902   -0.05030089    0.00000242
     atom  100 type  2   force =    -0.02255980    0.03662045    0.04582637
     atom  101 type  2   force =     0.05449460    0.09434176    0.18903396
     atom  102 type  2   force =     0.04306660   -0.00123657    0.04581846
     atom  103 type  2   force =    -0.02255740    0.03661242   -0.04583094
     atom  104 type  2   force =     0.05449840    0.09434811   -0.18904813
     atom  105 type  2   force =     0.04305902   -0.00123817   -0.04582303
     atom  106 type  2   force =    -0.00386684    0.00408573    0.00000532
     atom  107 type  2   force =     0.01101624    0.01915144    0.00001008
     atom  108 type  2   force =     0.00544625   -0.00131661    0.00000487
     atom  109 type  3   force =    -0.83293029   -1.44267800    0.00007824
     The core correction contribution to forces
     atom    1 type  1   force =     0.00236488   -0.00541333    0.00000041
     atom    2 type  1   force =     0.00271683    0.00434263   -0.00000005
     atom    3 type  1   force =    -0.00519828   -0.00100034   -0.00000022
     atom    4 type  1   force =     0.00269385   -0.00398971    0.00013921
     atom    5 type  1   force =     0.00241460    0.00427529    0.00026667
     atom    6 type  1   force =    -0.00486699    0.00041752   -0.00012128
     atom    7 type  1   force =     0.00269351   -0.00399002   -0.00013957
     atom    8 type  1   force =     0.00241640    0.00427426   -0.00026658
     atom    9 type  1   force =    -0.00486688    0.00041792    0.00012167
     atom   10 type  1   force =     0.00264051   -0.00451007   -0.00000133
     atom   11 type  1   force =     0.00338454    0.00519271   -0.00000002
     atom   12 type  1   force =    -0.00473939    0.00011591    0.00000131
     atom   13 type  1   force =     0.00248441   -0.00418814   -0.00003579
     atom   14 type  1   force =     0.00216729    0.00387042   -0.00008132
     atom   15 type  1   force =    -0.00491257    0.00007284   -0.00003277
     atom   16 type  1   force =     0.00248363   -0.00418888    0.00003720
     atom   17 type  1   force =     0.00216782    0.00387011    0.00008135
     atom   18 type  1   force =    -0.00491233    0.00007387    0.00003142
     atom   19 type  1   force =     0.00267022   -0.00451765   -0.00000020
     atom   20 type  1   force =     0.00267406    0.00394624   -0.00000019
     atom   21 type  1   force =    -0.00495195   -0.00005547   -0.00000042
     atom   22 type  1   force =    -0.00512196   -0.00018633    0.00000018
     atom   23 type  1   force =     0.00263932    0.00418395    0.00000019
     atom   24 type  1   force =     0.00251869   -0.00449325    0.00000046
     atom   25 type  1   force =     0.00248021   -0.00417351    0.00003318
     atom   26 type  1   force =     0.00252966    0.00433607   -0.00005681
     atom   27 type  1   force =    -0.00488801   -0.00001352   -0.00000536
     atom   28 type  1   force =     0.00248047   -0.00417261   -0.00003342
     atom   29 type  1   force =     0.00252905    0.00433595    0.00005705
     atom   30 type  1   force =    -0.00488592   -0.00001367    0.00000699
     atom   31 type  1   force =    -0.00490456    0.00005295    0.00002993
     atom   32 type  1   force =     0.00241785    0.00434956    0.00002537
     atom   33 type  1   force =     0.00230824   -0.00422877    0.00008666
     atom   34 type  1   force =    -0.00490389    0.00005362   -0.00002955
     atom   35 type  1   force =     0.00241808    0.00434894   -0.00002551
     atom   36 type  1   force =     0.00230712   -0.00422703   -0.00008817
     atom   37 type  1   force =     0.00064595   -0.00120925   -0.00028673
     atom   38 type  1   force =     0.00054968    0.00098404    0.00000406
     atom   39 type  1   force =    -0.00097660   -0.00000631   -0.00026674
     atom   40 type  1   force =     0.00064573   -0.00120890    0.00028663
     atom   41 type  1   force =     0.00054870    0.00098459   -0.00000392
     atom   42 type  1   force =    -0.00097710   -0.00000620    0.00026713
     atom   43 type  1   force =     0.00042022   -0.00078994   -0.00000030
     atom   44 type  1   force =     0.00053350    0.00110288    0.00000007
     atom   45 type  1   force =    -0.00110181    0.00001976    0.00000044
     atom   46 type  1   force =     0.00051657   -0.00122983    0.00006552
     atom   47 type  1   force =    -0.00009768    0.00023311   -0.00154480
     atom   48 type  1   force =    -0.00103295   -0.00003631    0.00000213
     atom   49 type  1   force =     0.00051761   -0.00122960   -0.00006549
     atom   50 type  1   force =    -0.00009766    0.00023314    0.00154486
     atom   51 type  1   force =    -0.00103256   -0.00003728   -0.00000198
     atom   52 type  1   force =     0.00051450   -0.00065379    0.00000067
     atom   53 type  1   force =     0.00040383    0.00073170    0.00000000
     atom   54 type  1   force =    -0.00093847    0.00004678   -0.00000056
     atom   55 type  1   force =     0.00057582   -0.00095854    0.00010285
     atom   56 type  1   force =     0.00048393    0.00091809    0.00000539
     atom   57 type  1   force =    -0.00094210    0.00003131   -0.00002760
     atom   58 type  1   force =     0.00057526   -0.00095914   -0.00010271
     atom   59 type  1   force =     0.00048608    0.00091778   -0.00000506
     atom   60 type  1   force =    -0.00094213    0.00003027    0.00002735
     atom   61 type  1   force =    -0.00093778   -0.00025036    0.00002608
     atom   62 type  1   force =     0.00069049    0.00063234   -0.00005280
     atom   63 type  1   force =     0.00052586   -0.00088650    0.00000198
     atom   64 type  1   force =    -0.00093796   -0.00025106   -0.00002608
     atom   65 type  1   force =     0.00068911    0.00063408    0.00005276
     atom   66 type  1   force =     0.00052496   -0.00088706   -0.00000150
     atom   67 type  1   force =     0.00034961   -0.00082516    0.00000055
     atom   68 type  1   force =     0.00041606    0.00091014   -0.00000005
     atom   69 type  1   force =    -0.00098723    0.00003879    0.00000050
     atom   70 type  1   force =    -0.00099913   -0.00004880   -0.00000043
     atom   71 type  1   force =     0.00047392    0.00086702    0.00000020
     atom   72 type  1   force =     0.00043884   -0.00087153   -0.00000036
     atom   73 type  2   force =    -0.00005446    0.00298085   -0.00000015
     atom   74 type  2   force =     0.00024505    0.00007419    0.00000001
     atom   75 type  2   force =     0.00040058   -0.00035095    0.00000000
     atom   76 type  2   force =     0.00261214    0.00143515   -0.00000014
     atom   77 type  2   force =    -0.00005352    0.00024755   -0.00000001
     atom   78 type  2   force =    -0.00048594    0.00016719    0.00000000
     atom   79 type  2   force =    -0.00032896    0.00006866   -0.00006835
     atom   80 type  2   force =     0.00005407    0.00003498    0.00003443
     atom   81 type  2   force =    -0.00006968   -0.00000972    0.00001803
     atom   82 type  2   force =    -0.00032900    0.00006871    0.00006831
     atom   83 type  2   force =     0.00005407    0.00003495   -0.00003445
     atom   84 type  2   force =    -0.00006966   -0.00000973   -0.00001802
     atom   85 type  2   force =     0.00022210   -0.00024920    0.00006985
     atom   86 type  2   force =     0.00000213    0.00006528   -0.00003472
     atom   87 type  2   force =     0.00002467   -0.00006455   -0.00001923
     atom   88 type  2   force =     0.00022204   -0.00024920   -0.00006988
     atom   89 type  2   force =     0.00000213    0.00006530    0.00003474
     atom   90 type  2   force =     0.00002467   -0.00006458    0.00001922
     atom   91 type  2   force =     0.00008120   -0.00003500   -0.00000001
     atom   92 type  2   force =    -0.00006891    0.00004875   -0.00000000
     atom   93 type  2   force =     0.00001102    0.00000887   -0.00004157
     atom   94 type  2   force =     0.00001106    0.00000885    0.00004158
     atom   95 type  2   force =     0.00000013    0.00001287    0.00004229
     atom   96 type  2   force =     0.00000014    0.00001286   -0.00004230
     atom   97 type  2   force =    -0.00119964   -0.00208123    0.00165884
     atom   98 type  2   force =    -0.00119942   -0.00208086   -0.00165839
     atom   99 type  2   force =    -0.00015193   -0.00026614    0.00000000
     atom  100 type  2   force =    -0.00002035   -0.00001799   -0.00004457
     atom  101 type  2   force =    -0.00002152   -0.00003958   -0.00016332
     atom  102 type  2   force =    -0.00000157   -0.00002712   -0.00004474
     atom  103 type  2   force =    -0.00002036   -0.00001801    0.00004457
     atom  104 type  2   force =    -0.00002150   -0.00003956    0.00016332
     atom  105 type  2   force =    -0.00000155   -0.00002712    0.00004473
     atom  106 type  2   force =    -0.00002957   -0.00001171    0.00000001
     atom  107 type  2   force =     0.00016081    0.00028242   -0.00000000
     atom  108 type  2   force =     0.00000330   -0.00003201   -0.00000000
     atom  109 type  3   force =     0.00000000    0.00000000    0.00000000
     The Hubbard contrib.    to forces
     atom    1 type  1   force =     0.00000000    0.00000000    0.00000000
     atom    2 type  1   force =     0.00000000    0.00000000    0.00000000
     atom    3 type  1   force =     0.00000000    0.00000000    0.00000000
     atom    4 type  1   force =     0.00000000    0.00000000    0.00000000
     atom    5 type  1   force =     0.00000000    0.00000000    0.00000000
     atom    6 type  1   force =     0.00000000    0.00000000    0.00000000
     atom    7 type  1   force =     0.00000000    0.00000000    0.00000000
     atom    8 type  1   force =     0.00000000    0.00000000    0.00000000
     atom    9 type  1   force =     0.00000000    0.00000000    0.00000000
     atom   10 type  1   force =     0.00000000    0.00000000    0.00000000
     atom   11 type  1   force =     0.00000000    0.00000000    0.00000000
     atom   12 type  1   force =     0.00000000    0.00000000    0.00000000
     atom   13 type  1   force =     0.00000000    0.00000000    0.00000000
     atom   14 type  1   force =     0.00000000    0.00000000    0.00000000
     atom   15 type  1   force =     0.00000000    0.00000000    0.00000000
     atom   16 type  1   force =     0.00000000    0.00000000    0.00000000
     atom   17 type  1   force =     0.00000000    0.00000000    0.00000000
     atom   18 type  1   force =     0.00000000    0.00000000    0.00000000
     atom   19 type  1   force =     0.00000000    0.00000000    0.00000000
     atom   20 type  1   force =     0.00000000    0.00000000    0.00000000
     atom   21 type  1   force =     0.00000000    0.00000000    0.00000000
     atom   22 type  1   force =     0.00000000    0.00000000    0.00000000
     atom   23 type  1   force =     0.00000000    0.00000000    0.00000000
     atom   24 type  1   force =     0.00000000    0.00000000    0.00000000
     atom   25 type  1   force =     0.00000000    0.00000000    0.00000000
     atom   26 type  1   force =     0.00000000    0.00000000    0.00000000
     atom   27 type  1   force =     0.00000000    0.00000000    0.00000000
     atom   28 type  1   force =     0.00000000    0.00000000    0.00000000
     atom   29 type  1   force =     0.00000000    0.00000000    0.00000000
     atom   30 type  1   force =     0.00000000    0.00000000    0.00000000
     atom   31 type  1   force =     0.00000000    0.00000000    0.00000000
     atom   32 type  1   force =     0.00000000    0.00000000    0.00000000
     atom   33 type  1   force =     0.00000000    0.00000000    0.00000000
     atom   34 type  1   force =     0.00000000    0.00000000    0.00000000
     atom   35 type  1   force =     0.00000000    0.00000000    0.00000000
     atom   36 type  1   force =     0.00000000    0.00000000    0.00000000
     atom   37 type  1   force =     0.00000000    0.00000000    0.00000000
     atom   38 type  1   force =     0.00000000    0.00000000    0.00000000
     atom   39 type  1   force =     0.00000000    0.00000000    0.00000000
     atom   40 type  1   force =     0.00000000    0.00000000    0.00000000
     atom   41 type  1   force =     0.00000000    0.00000000    0.00000000
     atom   42 type  1   force =     0.00000000    0.00000000    0.00000000
     atom   43 type  1   force =     0.00000000    0.00000000    0.00000000
     atom   44 type  1   force =     0.00000000    0.00000000    0.00000000
     atom   45 type  1   force =     0.00000000    0.00000000    0.00000000
     atom   46 type  1   force =     0.00000000    0.00000000    0.00000000
     atom   47 type  1   force =     0.00000000    0.00000000    0.00000000
     atom   48 type  1   force =     0.00000000    0.00000000    0.00000000
     atom   49 type  1   force =     0.00000000    0.00000000    0.00000000
     atom   50 type  1   force =     0.00000000    0.00000000    0.00000000
     atom   51 type  1   force =     0.00000000    0.00000000    0.00000000
     atom   52 type  1   force =     0.00000000    0.00000000    0.00000000
     atom   53 type  1   force =     0.00000000    0.00000000    0.00000000
     atom   54 type  1   force =     0.00000000    0.00000000    0.00000000
     atom   55 type  1   force =     0.00000000    0.00000000    0.00000000
     atom   56 type  1   force =     0.00000000    0.00000000    0.00000000
     atom   57 type  1   force =     0.00000000    0.00000000    0.00000000
     atom   58 type  1   force =     0.00000000    0.00000000    0.00000000
     atom   59 type  1   force =     0.00000000    0.00000000    0.00000000
     atom   60 type  1   force =     0.00000000    0.00000000    0.00000000
     atom   61 type  1   force =     0.00000000    0.00000000    0.00000000
     atom   62 type  1   force =     0.00000000    0.00000000    0.00000000
     atom   63 type  1   force =     0.00000000    0.00000000    0.00000000
     atom   64 type  1   force =     0.00000000    0.00000000    0.00000000
     atom   65 type  1   force =     0.00000000    0.00000000    0.00000000
     atom   66 type  1   force =     0.00000000    0.00000000    0.00000000
     atom   67 type  1   force =     0.00000000    0.00000000    0.00000000
     atom   68 type  1   force =     0.00000000    0.00000000    0.00000000
     atom   69 type  1   force =     0.00000000    0.00000000    0.00000000
     atom   70 type  1   force =     0.00000000    0.00000000    0.00000000
     atom   71 type  1   force =     0.00000000    0.00000000    0.00000000
     atom   72 type  1   force =     0.00000000    0.00000000    0.00000000
     atom   73 type  2   force =     0.00000000    0.00000000    0.00000000
     atom   74 type  2   force =     0.00000000    0.00000000    0.00000000
     atom   75 type  2   force =     0.00000000    0.00000000    0.00000000
     atom   76 type  2   force =     0.00000000    0.00000000    0.00000000
     atom   77 type  2   force =     0.00000000    0.00000000    0.00000000
     atom   78 type  2   force =     0.00000000    0.00000000    0.00000000
     atom   79 type  2   force =     0.00000000    0.00000000    0.00000000
     atom   80 type  2   force =     0.00000000    0.00000000    0.00000000
     atom   81 type  2   force =     0.00000000    0.00000000    0.00000000
     atom   82 type  2   force =     0.00000000    0.00000000    0.00000000
     atom   83 type  2   force =     0.00000000    0.00000000    0.00000000
     atom   84 type  2   force =     0.00000000    0.00000000    0.00000000
     atom   85 type  2   force =     0.00000000    0.00000000    0.00000000
     atom   86 type  2   force =     0.00000000    0.00000000    0.00000000
     atom   87 type  2   force =     0.00000000    0.00000000    0.00000000
     atom   88 type  2   force =     0.00000000    0.00000000    0.00000000
     atom   89 type  2   force =     0.00000000    0.00000000    0.00000000
     atom   90 type  2   force =     0.00000000    0.00000000    0.00000000
     atom   91 type  2   force =     0.00000000    0.00000000    0.00000000
     atom   92 type  2   force =     0.00000000    0.00000000    0.00000000
     atom   93 type  2   force =     0.00000000    0.00000000    0.00000000
     atom   94 type  2   force =     0.00000000    0.00000000    0.00000000
     atom   95 type  2   force =     0.00000000    0.00000000    0.00000000
     atom   96 type  2   force =     0.00000000    0.00000000    0.00000000
     atom   97 type  2   force =     0.00000000    0.00000000    0.00000000
     atom   98 type  2   force =     0.00000000    0.00000000    0.00000000
     atom   99 type  2   force =     0.00000000    0.00000000    0.00000000
     atom  100 type  2   force =     0.00000000    0.00000000    0.00000000
     atom  101 type  2   force =     0.00000000    0.00000000    0.00000000
     atom  102 type  2   force =     0.00000000    0.00000000    0.00000000
     atom  103 type  2   force =     0.00000000    0.00000000    0.00000000
     atom  104 type  2   force =     0.00000000    0.00000000    0.00000000
     atom  105 type  2   force =     0.00000000    0.00000000    0.00000000
     atom  106 type  2   force =     0.00000000    0.00000000    0.00000000
     atom  107 type  2   force =     0.00000000    0.00000000    0.00000000
     atom  108 type  2   force =     0.00000000    0.00000000    0.00000000
     atom  109 type  3   force =     0.00000000    0.00000000    0.00000000
     The SCF correction term to forces
     atom    1 type  1   force =    -0.00015599    0.00006257   -0.00000006
     atom    2 type  1   force =    -0.00009053    0.00003942   -0.00000049
     atom    3 type  1   force =    -0.00015805    0.00000696   -0.00000036
     atom    4 type  1   force =    -0.00010898    0.00004055   -0.00000092
     atom    5 type  1   force =    -0.00007343    0.00002703    0.00002656
     atom    6 type  1   force =    -0.00013496    0.00000058    0.00003345
     atom    7 type  1   force =    -0.00010935    0.00004120    0.00000116
     atom    8 type  1   force =    -0.00007329    0.00002540   -0.00002588
     atom    9 type  1   force =    -0.00013410    0.00000005   -0.00003290
     atom   10 type  1   force =     0.00000166   -0.00017199   -0.00000070
     atom   11 type  1   force =    -0.00006613    0.00010515   -0.00000027
     atom   12 type  1   force =     0.00010849    0.00006452    0.00000068
     atom   13 type  1   force =     0.00000563   -0.00011594    0.00001734
     atom   14 type  1   force =    -0.00007365    0.00006974    0.00008118
     atom   15 type  1   force =     0.00010170    0.00003196    0.00000360
     atom   16 type  1   force =     0.00000550   -0.00011630   -0.00001666
     atom   17 type  1   force =    -0.00007326    0.00006916   -0.00008071
     atom   18 type  1   force =     0.00010152    0.00003321   -0.00000430
     atom   19 type  1   force =     0.00019781    0.00002654   -0.00000021
     atom   20 type  1   force =     0.00007402   -0.00002179   -0.00000042
     atom   21 type  1   force =     0.00007880    0.00007664   -0.00000037
     atom   22 type  1   force =    -0.00008954   -0.00010044   -0.00000039
     atom   23 type  1   force =     0.00012297   -0.00004896    0.00000078
     atom   24 type  1   force =     0.00000706    0.00005431    0.00000058
     atom   25 type  1   force =     0.00012643    0.00003225    0.00002782
     atom   26 type  1   force =     0.00006636   -0.00000131   -0.00001824
     atom   27 type  1   force =     0.00000144    0.00003447    0.00002428
     atom   28 type  1   force =     0.00012531    0.00003354   -0.00002752
     atom   29 type  1   force =     0.00006682   -0.00000037    0.00001880
     atom   30 type  1   force =     0.00000229    0.00003373   -0.00002375
     atom   31 type  1   force =    -0.00003860   -0.00007583   -0.00001267
     atom   32 type  1   force =     0.00009320   -0.00005763   -0.00003023
     atom   33 type  1   force =    -0.00000665   -0.00001737   -0.00003280
     atom   34 type  1   force =    -0.00003834   -0.00007506    0.00001314
     atom   35 type  1   force =     0.00009427   -0.00005870    0.00002959
     atom   36 type  1   force =    -0.00000695   -0.00001643    0.00003239
     atom   37 type  1   force =    -0.00006659   -0.00000385   -0.00002120
     atom   38 type  1   force =    -0.00001141    0.00001357    0.00002067
     atom   39 type  1   force =     0.00003602   -0.00002436    0.00003883
     atom   40 type  1   force =    -0.00006692   -0.00000233    0.00002093
     atom   41 type  1   force =    -0.00001005    0.00001347   -0.00002049
     atom   42 type  1   force =     0.00003630   -0.00002352   -0.00003900
     atom   43 type  1   force =    -0.00002405    0.00001125   -0.00000002
     atom   44 type  1   force =    -0.00000522    0.00003469   -0.00000016
     atom   45 type  1   force =     0.00002275   -0.00001477   -0.00000012
     atom   46 type  1   force =    -0.00006415   -0.00010690    0.00004040
     atom   47 type  1   force =    -0.00017395    0.00005353    0.00008430
     atom   48 type  1   force =    -0.00002587    0.00008177    0.00000555
     atom   49 type  1   force =    -0.00006444   -0.00010755   -0.00004044
     atom   50 type  1   force =    -0.00017317    0.00005425   -0.00008352
     atom   51 type  1   force =    -0.00002530    0.00008177   -0.00000463
     atom   52 type  1   force =    -0.00006409   -0.00009041   -0.00000015
     atom   53 type  1   force =    -0.00009550    0.00012577   -0.00000076
     atom   54 type  1   force =    -0.00000485    0.00003240   -0.00000111
     atom   55 type  1   force =     0.00008537    0.00008663    0.00007404
     atom   56 type  1   force =     0.00015475    0.00003344   -0.00002637
     atom   57 type  1   force =     0.00009267   -0.00002057   -0.00001604
     atom   58 type  1   force =     0.00008592    0.00008609   -0.00007520
     atom   59 type  1   force =     0.00015420    0.00003442    0.00002609
     atom   60 type  1   force =     0.00009260   -0.00002040    0.00001544
     atom   61 type  1   force =    -0.00008179   -0.00000544   -0.00007129
     atom   62 type  1   force =    -0.00000072   -0.00014617   -0.00002082
     atom   63 type  1   force =     0.00005893    0.00001494   -0.00000444
     atom   64 type  1   force =    -0.00008074   -0.00000465    0.00007087
     atom   65 type  1   force =     0.00000037   -0.00014524    0.00002080
     atom   66 type  1   force =     0.00005861    0.00001534    0.00000566
     atom   67 type  1   force =    -0.00002130    0.00008657    0.00000113
     atom   68 type  1   force =     0.00011718    0.00001904    0.00000011
     atom   69 type  1   force =     0.00007697    0.00000001    0.00000053
     atom   70 type  1   force =    -0.00001260   -0.00005688    0.00000039
     atom   71 type  1   force =    -0.00000242   -0.00012525   -0.00000015
     atom   72 type  1   force =     0.00004852    0.00000019   -0.00000129
     atom   73 type  2   force =    -0.00006456   -0.00000334   -0.00000007
     atom   74 type  2   force =    -0.00000519    0.00001713    0.00000007
     atom   75 type  2   force =    -0.00000214   -0.00004275   -0.00000007
     atom   76 type  2   force =    -0.00000282    0.00000125   -0.00000013
     atom   77 type  2   force =     0.00000299   -0.00002353   -0.00000027
     atom   78 type  2   force =     0.00000512    0.00001572    0.00000001
     atom   79 type  2   force =    -0.00001857    0.00000823    0.00000747
     atom   80 type  2   force =     0.00000557    0.00001699    0.00000446
     atom   81 type  2   force =    -0.00000561   -0.00003944    0.00001175
     atom   82 type  2   force =    -0.00001875    0.00000895   -0.00000731
     atom   83 type  2   force =     0.00000598    0.00001693   -0.00000454
     atom   84 type  2   force =    -0.00000575   -0.00003960   -0.00001162
     atom   85 type  2   force =    -0.00001404    0.00003343   -0.00001508
     atom   86 type  2   force =     0.00000381   -0.00000540   -0.00000453
     atom   87 type  2   force =     0.00000781    0.00000687    0.00000396
     atom   88 type  2   force =    -0.00001478    0.00003314    0.00001530
     atom   89 type  2   force =     0.00000375   -0.00000541    0.00000480
     atom   90 type  2   force =     0.00000794    0.00000658   -0.00000391
     atom   91 type  2   force =     0.00005277    0.00001681   -0.00000008
     atom   92 type  2   force =     0.00000201   -0.00001462    0.00000024
     atom   93 type  2   force =     0.00003475    0.00001265    0.00000319
     atom   94 type  2   force =     0.00003438    0.00001247   -0.00000311
     atom   95 type  2   force =     0.00000193   -0.00001985   -0.00000977
     atom   96 type  2   force =     0.00000221   -0.00001915    0.00000953
     atom   97 type  2   force =    -0.00004524    0.00001385    0.00001055
     atom   98 type  2   force =    -0.00004526    0.00001349   -0.00001005
     atom   99 type  2   force =    -0.00004172    0.00000089   -0.00000055
     atom  100 type  2   force =    -0.00000279   -0.00002823   -0.00000497
     atom  101 type  2   force =     0.00000024    0.00002567    0.00002333
     atom  102 type  2   force =     0.00005026    0.00000174    0.00000049
     atom  103 type  2   force =    -0.00000261   -0.00002840    0.00000471
     atom  104 type  2   force =     0.00000040    0.00002542   -0.00002334
     atom  105 type  2   force =     0.00004979    0.00000222   -0.00000043
     atom  106 type  2   force =     0.00000130   -0.00001412    0.00000024
     atom  107 type  2   force =    -0.00001850   -0.00000476   -0.00000003
     atom  108 type  2   force =     0.00004140   -0.00000088   -0.00000008
     atom  109 type  3   force =    -0.00001404    0.00000074   -0.00000002

     Total force =     0.004001     Total SCF correction =     0.000969
     SCF correction compared to forces is large: reduce conv_thr to get better values


     Computing stress (Cartesian axis) and pressure


     negative rho (up, down):  0.000E+00 9.305E-04
          total   stress  (Ry/bohr**3)                   (kbar)     P=  -61.91
  -0.00045216  -0.00000218  -0.00000000        -66.51     -0.32     -0.00
  -0.00000218  -0.00045467  -0.00000000         -0.32    -66.88     -0.00
  -0.00000000  -0.00000000  -0.00035572         -0.00     -0.00    -52.33

     kinetic stress (kbar)  56389.01     -1.17     -0.00
                               -1.17  56387.67     -0.00
                               -0.00     -0.00  56293.48

     local   stress (kbar)  37598.09     22.40     -0.00
                               22.40  37623.99     -0.01
                               -0.00     -0.01  38329.90

     nonloc. stress (kbar) -41072.02      2.75     -0.00
                                2.75 -41068.85     -0.00
                               -0.00     -0.00 -40899.31

     hartree stress (kbar)  32447.37      1.07      0.00
                                1.07  32448.61      0.00
                                0.00      0.00  32746.74

     exc-cor stress (kbar)  -1895.97     -0.13      0.00
                               -0.13  -1896.12      0.00
                                0.00      0.00  -1900.63

     corecor stress (kbar) -11748.60      0.08     -0.00
                                0.08 -11748.51     -0.00
                               -0.00     -0.00 -11747.77

     ewald   stress (kbar) -71784.40    -25.32      0.00
                              -25.32 -71813.66      0.01
                                0.00      0.01 -72874.74

     hubbard stress (kbar)      0.00      0.00      0.00
                                0.00      0.00      0.00
                                0.00      0.00      0.00

     london  stress (kbar)      0.00      0.00      0.00
                                0.00      0.00      0.00
                                0.00      0.00      0.00

     DFT-D3  stress (kbar)      0.00      0.00      0.00
                                0.00      0.00      0.00
                                0.00      0.00      0.00

     XDM     stress (kbar)      0.00      0.00      0.00
                                0.00      0.00      0.00
                                0.00      0.00      0.00

     dft-nl  stress (kbar)      0.00      0.00      0.00
                                0.00      0.00      0.00
                                0.00      0.00      0.00

     TS-vdW  stress (kbar)      0.00      0.00      0.00
                                0.00      0.00      0.00
                                0.00      0.00      0.00



     Writing output data file fe2p_scff2.r2.save/
 
     init_run     :    252.85s CPU    272.89s WALL (       1 calls)
     electrons    :  16777.45s CPU  18223.55s WALL (       1 calls)
     forces       :    139.99s CPU    140.61s WALL (       1 calls)
     stress       :   1037.59s CPU   1040.89s WALL (       1 calls)

     Called by init_run:
     wfcinit      :    232.62s CPU    251.08s WALL (       1 calls)
     wfcinit:atom :      0.85s CPU      0.85s WALL (      24 calls)
     wfcinit:wfcr :    224.48s CPU    242.65s WALL (      24 calls)
     potinit      :      6.00s CPU      6.49s WALL (       1 calls)
     hinit0       :      6.35s CPU      6.56s WALL (       1 calls)

     Called by electrons:
     c_bands      :  15057.69s CPU  16451.35s WALL (      26 calls)
     sum_band     :   1631.89s CPU   1675.85s WALL (      26 calls)
     v_of_rho     :     20.13s CPU     20.23s WALL (      27 calls)
     v_h          :      0.51s CPU      0.52s WALL (      27 calls)
     v_xc         :     21.08s CPU     21.16s WALL (      29 calls)
     newd         :     25.42s CPU     26.60s WALL (      27 calls)
     PAW_pot      :     36.67s CPU     40.88s WALL (      27 calls)
     mix_rho      :      5.99s CPU      6.31s WALL (      26 calls)

     Called by c_bands:
     init_us_2    :     52.90s CPU     52.91s WALL (    1320 calls)
     cegterg      :  12940.47s CPU  14295.36s WALL (     624 calls)

     Called by sum_band:
     sum_band:bec :     30.07s CPU     30.07s WALL (     624 calls)
     addusdens    :     36.09s CPU     38.46s WALL (      26 calls)

     Called by *egterg:
     h_psi        :   6669.90s CPU   6992.85s WALL (    2210 calls)
     s_psi        :   1080.78s CPU   1314.44s WALL (    2210 calls)
     g_psi        :     30.54s CPU     30.57s WALL (    1562 calls)
     cdiaghg      :   2828.28s CPU   3238.94s WALL (    2186 calls)
     cegterg:over :    976.13s CPU   1038.67s WALL (    1562 calls)
     cegterg:upda :    760.47s CPU    951.43s WALL (    1562 calls)
     cegterg:last :    449.52s CPU    507.18s WALL (     624 calls)
     cdiaghg:chol :    362.47s CPU    410.71s WALL (    2186 calls)
     cdiaghg:inve :    211.72s CPU    217.09s WALL (    2186 calls)
     cdiaghg:para :    191.53s CPU    284.52s WALL (    4372 calls)

     Called by h_psi:
     h_psi:pot    :   6658.03s CPU   6971.40s WALL (    2210 calls)
     h_psi:calbec :   1042.41s CPU   1056.86s WALL (    2210 calls)
     vloc_psi     :   4490.48s CPU   4543.79s WALL (    2210 calls)
     add_vuspsi   :   1125.05s CPU   1370.68s WALL (    2210 calls)

     General routines
     calbec       :   1595.86s CPU   1617.34s WALL (    2954 calls)
     fft          :     10.90s CPU     11.10s WALL (     715 calls)
     ffts         :      2.64s CPU      2.74s WALL (     631 calls)
     fftw         :   4983.74s CPU   5051.06s WALL ( 2762622 calls)
     interpolate  :      1.15s CPU      1.22s WALL (      54 calls)
 
     Parallel routines
     fft_scatt_xy :    824.58s CPU    815.65s WALL ( 2763968 calls)
     fft_scatt_yz :   2076.93s CPU   2078.77s WALL ( 2763968 calls)

     PAW routines
     PAW_pot      :     36.67s CPU     40.88s WALL (      27 calls)
     PAW_symme    :      0.15s CPU      0.21s WALL (      53 calls)
 
     PWSCF        :     5h 4m CPU        4h 5m WALL

      29h
 
   This run was terminated on:  13:34:53  17Dec2019            

=------------------------------------------------------------------------------=
   JOB DONE.
=------------------------------------------------------------------------------=
